! Infineon Technologies  Discrete & RF Semiconductors
! BFP420
!
! VCE =  2.5 V,  IC =  5.0 mA
! Common Emitter S-Parameters:                            Nov 2009
# GHz  S  MA  R  50
!  f         S11            S21            S12            S22
! GHz     MAG   ANG      MAG   ANG      MAG   ANG      MAG   ANG
 0.010  0.8316   -1.8  15.936  179.2  0.0009  102.7  0.9846    0.2
 0.020  0.8368   -2.5  15.534  178.3  0.0019   84.9  0.9885   -1.3
 0.050  0.8359   -5.7  15.558  175.5  0.0047   84.9  0.9880   -3.4
 0.100  0.8322  -11.9  15.569  171.2  0.0092   83.5  0.9838   -6.9
 0.150  0.8255  -17.8  15.437  166.9  0.0138   81.0  0.9759  -10.3
 0.200  0.8203  -23.5  15.260  162.7  0.0182   78.1  0.9653  -13.7
 0.250  0.8103  -29.3  14.977  158.4  0.0225   75.0  0.9519  -16.9
 0.300  0.7991  -35.1  14.754  154.4  0.0266   72.1  0.9358  -20.2
 0.350  0.7881  -40.6  14.452  150.5  0.0305   69.4  0.9179  -23.2
 0.400  0.7760  -46.0  14.116  146.7  0.0341   66.7  0.8980  -26.2
 0.450  0.7623  -51.4  13.764  143.0  0.0376   64.2  0.8776  -29.1
 0.500  0.7487  -56.6  13.393  139.4  0.0408   61.8  0.8556  -31.9
 0.600  0.7224  -66.5  12.645  132.5  0.0466   57.4  0.8110  -37.0
 0.700  0.6950  -75.9  11.887  126.4  0.0516   53.5  0.7659  -41.8
 0.800  0.6709  -84.6  11.125  120.7  0.0559   50.1  0.7223  -46.0
 0.900  0.6489  -92.9  10.435  115.5  0.0595   47.0  0.6808  -49.9
 1.000  0.6300 -100.7   9.785  110.8  0.0627   44.4  0.6415  -53.5
 1.100  0.6132 -107.9   9.178  106.4  0.0655   42.1  0.6057  -56.7
 1.200  0.5988 -114.8   8.619  102.2  0.0680   40.0  0.5710  -59.9
 1.300  0.5871 -121.2   8.112   98.5  0.0703   38.1  0.5403  -62.7
 1.400  0.5770 -127.3   7.648   94.9  0.0722   36.5  0.5111  -65.5
 1.500  0.5675 -132.9   7.230   91.6  0.0741   35.0  0.4841  -68.0
 1.600  0.5617 -138.3   6.840   88.4  0.0758   33.7  0.4598  -70.4
 1.700  0.5540 -143.6   6.493   85.5  0.0774   32.5  0.4365  -72.8
 1.800  0.5493 -148.3   6.159   82.6  0.0789   31.4  0.4157  -74.9
 1.900  0.5454 -153.2   5.862   79.9  0.0803   30.3  0.3950  -77.4
 2.000  0.5399 -157.4   5.588   77.3  0.0817   29.4  0.3768  -79.3
 2.200  0.5342 -166.0   5.108   72.3  0.0844   27.6  0.3422  -83.7
 2.400  0.5332 -174.1   4.692   67.7  0.0869   26.0  0.3107  -88.2
 2.600  0.5357  178.3   4.332   63.2  0.0891   24.6  0.2826  -92.8
 2.800  0.5378  171.7   4.015   59.1  0.0913   23.3  0.2576  -97.5
 3.000  0.5439  165.5   3.743   55.1  0.0936   22.1  0.2356 -102.3
 3.500  0.5667  151.1   3.183   45.5  0.0991   19.3  0.1907 -117.5
 4.000  0.5918  139.1   2.754   36.6  0.1050   16.7  0.1637 -135.3
 4.500  0.6116  129.5   2.403   28.2  0.1104   13.8  0.1541 -154.1
 5.000  0.6231  122.0   2.120   20.8  0.1157   11.3  0.1530 -170.1
 5.500  0.6361  114.9   1.902   13.8  0.1209    8.8  0.1590  174.8
 6.000  0.6557  108.0   1.730    6.9  0.1267    6.3  0.1703  161.1
 6.500  0.6767  101.9   1.588   -0.2  0.1336    3.4  0.1845  149.5
 7.000  0.6928   95.9   1.470   -7.4  0.1413    0.1  0.1970  139.0
 7.500  0.7044   89.8   1.364  -14.6  0.1491   -4.0  0.2172  129.3
 8.000  0.7164   82.7   1.251  -22.0  0.1543   -8.9  0.2439  119.5
 8.500  0.7320   75.4   1.136  -28.8  0.1555  -13.4  0.2770  108.7
 9.000  0.7645   68.9   1.041  -34.8  0.1561  -16.6  0.3260   99.8
 9.500  0.8162   64.1   0.967  -40.3  0.1579  -19.4  0.3871   94.2
10.000  0.8560   60.6   0.875  -46.1  0.1607  -22.3  0.4439   90.6
!
!  f       Fmin   Gammaopt  rn/50
! GHz       dB    MAG  ANG    -
 0.900      0.66  0.21   31   0.15
 1.800      1.05  0.09   93   0.13
 2.400      1.14  0.14  119   0.13
 3.000      1.24  0.17  165   0.11
 4.000      1.41  0.31 -145   0.12
 5.000      1.85  0.38 -119   0.21
 6.000      2.30  0.45 -101   0.36
!
! (c) 2009  Infineon Technologies AG, Munich
