! SIEMENS Discrete & RF Semiconductors
! BFP420
! Si NPN RF SIEGET Grounded Emitter Transistor in SOT343
! VCE = 2.5 V     IC = 5 mA     
! Common Emitter S-Parameters:                     February  1998
# GHz  S  MA  R  50
!  f         S11            S21            S12            S22
! GHz     MAG   ANG      MAG   ANG      MAG   ANG      MAG   ANG
 0.010  0.7926   -1.2  15.171  179.1  0.0008   79.4  0.9882   -0.6
 0.020  0.7951   -2.5  14.989  178.5  0.0016   76.7  0.9884   -1.1
 0.050  0.7943   -5.8  15.058  175.5  0.0044   81.8  0.9878   -3.0
 0.100  0.7879  -11.3  15.013  171.8  0.0087   84.6  0.9810   -6.1
 0.150  0.7845  -17.4  14.908  167.6  0.0126   80.1  0.9774   -9.3
 0.200  0.7780  -22.8  14.633  163.4  0.0170   78.3  0.9674  -12.1
 0.250  0.7687  -28.5  14.468  159.8  0.0209   76.3  0.9531  -15.2
 0.300  0.7630  -34.0  14.317  155.8  0.0247   72.1  0.9396  -17.9
 0.400  0.7331  -44.7  13.747  147.9  0.0316   67.7  0.9046  -23.5
 0.500  0.7072  -54.3  12.928  140.7  0.0374   63.4  0.8631  -28.3
 0.600  0.6796  -64.1  12.396  134.1  0.0424   59.0  0.8221  -32.6
 0.700  0.6558  -73.4  11.614  128.4  0.0475   55.9  0.7821  -36.6
 0.800  0.6278  -81.8  10.977  122.8  0.0516   52.6  0.7404  -40.5
 0.900  0.6087  -89.7  10.329  117.8  0.0549   49.8  0.6961  -43.7
 1.000  0.5939  -97.6   9.755  113.3  0.0578   47.5  0.6617  -46.2
 1.100  0.5739 -104.9   9.152  108.8  0.0604   45.2  0.6327  -49.1
 1.200  0.5582 -112.0   8.600  104.7  0.0630   43.5  0.6003  -52.1
 1.300  0.5438 -117.7   8.099  101.3  0.0654   42.1  0.5635  -54.2
 1.400  0.5318 -123.6   7.642   97.9  0.0672   40.7  0.5396  -55.7
 1.500  0.5211 -129.5   7.266   94.2  0.0684   39.5  0.5197  -57.9
 1.600  0.5201 -135.4   6.905   91.1  0.0706   39.1  0.4961  -60.4
 1.700  0.5134 -140.1   6.579   88.2  0.0723   37.8  0.4663  -61.9
 1.800  0.5052 -145.2   6.253   85.3  0.0734   37.0  0.4490  -62.4
 1.900  0.5053 -150.0   5.968   82.7  0.0752   36.3  0.4379  -64.3
 2.000  0.5004 -154.6   5.723   80.1  0.0770   35.8  0.4194  -66.8
 2.200  0.4988 -162.5   5.252   75.4  0.0803   34.8  0.3842  -68.1
 2.400  0.4953 -170.5   4.839   70.8  0.0832   34.0  0.3634  -72.8
 2.600  0.5004 -177.8   4.472   66.3  0.0865   33.2  0.3305  -73.4
 2.800  0.5019  175.7   4.194   62.2  0.0893   32.0  0.3182  -78.7
 3.000  0.5043  169.6   3.923   57.8  0.0931   31.0  0.2866  -79.3
 3.500  0.5215  154.6   3.373   48.1  0.1009   28.6  0.2554  -88.3
 4.000  0.5406  142.7   2.935   39.1  0.1089   26.5  0.2210 -103.3
 4.500  0.5719  132.4   2.582   30.7  0.1180   23.7  0.1823 -118.6
 5.000  0.5976  124.5   2.317   22.6  0.1254   20.6  0.1590 -126.6
 5.500  0.6184  117.0   2.098   14.9  0.1340   18.1  0.1695 -138.6
 6.000  0.6286  110.6   1.906    7.2  0.1411   14.5  0.1714 -159.7
! 
!  f       Fmin   Gammaopt  rn/50
! GHz       dB    MAG  ANG    -
 0.450      0.87  0.19   13   0.16
 0.900      0.88  0.19   31   0.15
 1.800      1.05  0.10   92   0.12
 2.400      1.13  0.14  121   0.12
 3.000      1.26  0.16  155   0.12
 4.000      1.42  0.31 -145   0.13
!
! SIEMENS AG  Semiconductor Group, Munich
