! Infineon Technologies  Discrete & RF Semiconductors
! BFP420
!
! VCE =  0.5 V,  IC =  9.0 mA
! Common Emitter S-Parameters:                            Nov 2009
# GHz  S  MA  R  50
!  f         S11            S21            S12            S22
! GHz     MAG   ANG      MAG   ANG      MAG   ANG      MAG   ANG
 0.010  0.7192   -2.5  24.715  179.2  0.0014  103.9  0.9492   -0.1
 0.020  0.7200   -4.8  24.231  177.4  0.0030   86.9  0.9578   -3.0
 0.050  0.7147  -11.6  24.232  172.6  0.0072   84.0  0.9550   -7.7
 0.100  0.7119  -23.2  23.975  165.4  0.0142   79.1  0.9400  -15.5
 0.150  0.6997  -34.4  23.268  158.2  0.0209   73.8  0.9142  -23.0
 0.200  0.6882  -44.9  22.396  151.7  0.0268   68.9  0.8809  -30.1
 0.250  0.6718  -55.0  21.305  145.3  0.0321   64.6  0.8436  -36.8
 0.300  0.6574  -64.4  20.286  139.6  0.0367   60.5  0.8025  -43.0
 0.350  0.6435  -73.2  19.199  134.5  0.0408   56.9  0.7618  -48.7
 0.400  0.6309  -81.3  18.134  129.6  0.0442   53.9  0.7219  -54.0
 0.450  0.6177  -88.8  17.096  125.2  0.0473   51.1  0.6836  -58.8
 0.500  0.6070  -95.6  16.118  121.2  0.0499   48.8  0.6472  -63.5
 0.600  0.5891 -107.9  14.361  114.1  0.0543   44.9  0.5828  -71.8
 0.700  0.5758 -118.5  12.847  108.1  0.0577   42.0  0.5277  -79.2
 0.800  0.5671 -127.5  11.558  103.0  0.0606   39.8  0.4816  -85.8
 0.900  0.5605 -135.3  10.479   98.4  0.0631   38.1  0.4430  -92.0
 1.000  0.5564 -142.5   9.560   94.4  0.0654   36.7  0.4107  -97.9
 1.100  0.5544 -148.6   8.767   90.8  0.0676   35.7  0.3835 -103.2
 1.200  0.5534 -154.2   8.081   87.4  0.0697   34.8  0.3605 -108.7
 1.300  0.5528 -159.2   7.485   84.3  0.0717   34.1  0.3410 -113.6
 1.400  0.5533 -164.0   6.965   81.4  0.0736   33.5  0.3251 -118.5
 1.500  0.5534 -168.2   6.518   78.8  0.0757   33.0  0.3108 -123.2
 1.600  0.5557 -172.2   6.106   76.1  0.0776   32.5  0.2994 -127.6
 1.700  0.5561 -176.1   5.753   73.7  0.0796   32.1  0.2895 -132.1
 1.800  0.5576 -179.4   5.427   71.4  0.0816   31.6  0.2807 -136.2
 1.900  0.5597  177.0   5.131   69.1  0.0836   31.1  0.2746 -140.8
 2.000  0.5595  173.9   4.875   66.9  0.0857   30.7  0.2678 -144.6
 2.200  0.5631  167.8   4.418   62.6  0.0897   29.7  0.2596 -152.8
 2.400  0.5689  162.1   4.034   58.6  0.0936   28.6  0.2556 -160.8
 2.600  0.5772  156.7   3.708   54.6  0.0975   27.5  0.2547 -168.3
 2.800  0.5844  151.8   3.427   51.0  0.1015   26.5  0.2560 -175.2
 3.000  0.5939  147.3   3.182   47.4  0.1054   25.4  0.2591  178.3
 3.500  0.6215  136.5   2.687   38.6  0.1149   22.1  0.2770  163.6
 4.000  0.6469  126.9   2.312   30.3  0.1242   18.5  0.3008  152.0
 4.500  0.6637  119.4   2.011   22.6  0.1322   14.7  0.3236  142.9
 5.000  0.6723  113.4   1.776   15.8  0.1400   11.3  0.3399  135.5
 5.500  0.6844  107.3   1.595    9.2  0.1475    7.9  0.3584  129.0
 6.000  0.7009  101.4   1.451    2.7  0.1554    4.3  0.3806  122.5
 6.500  0.7204   95.9   1.331   -4.1  0.1636    0.1  0.4003  116.1
 7.000  0.7348   90.5   1.232  -11.0  0.1722   -4.2  0.4157  109.5
 7.500  0.7439   84.7   1.145  -18.1  0.1799   -9.4  0.4359  103.3
 8.000  0.7530   78.2   1.048  -25.3  0.1837  -15.2  0.4592   96.9
 8.500  0.7649   71.3   0.949  -31.7  0.1823  -20.0  0.4860   90.0
 9.000  0.7943   65.4   0.865  -37.1  0.1812  -23.4  0.5282   84.2
 9.500  0.8415   60.9   0.805  -42.0  0.1822  -26.4  0.5821   80.2
10.000  0.8765   57.6   0.730  -46.9  0.1832  -29.9  0.6281   76.6
!
!  f       Fmin   Gammaopt  rn/50
! GHz       dB    MAG  ANG    -
!
! noise parameter not availible yet for this operation point!
!
! (c) 2009  Infineon Technologies AG, Munich