! Infineon Technologies  Discrete & RF Semiconductors
! BFP420
!
! VCE =  0.5 V,  IC =  12 mA
! Common Emitter S-Parameters:                            Nov 2009
# GHz  S  MA  R  50
!  f         S11            S21            S12            S22
! GHz     MAG   ANG      MAG   ANG      MAG   ANG      MAG   ANG
 0.010  0.6491   -4.0  29.831  179.2  0.0015   89.6  0.9314    0.1
 0.020  0.6527   -6.1  29.420  176.9  0.0028   86.6  0.9417   -3.6
 0.050  0.6497  -14.2  29.346  171.5  0.0071   84.6  0.9381   -9.2
 0.100  0.6419  -28.6  28.816  163.0  0.0138   77.6  0.9176  -18.5
 0.150  0.6332  -42.3  27.635  154.8  0.0201   71.6  0.8830  -27.5
 0.200  0.6233  -54.7  26.232  147.5  0.0254   66.3  0.8402  -35.6
 0.250  0.6083  -66.2  24.600  140.7  0.0301   61.8  0.7947  -43.1
 0.300  0.5973  -76.8  23.077  134.6  0.0340   57.8  0.7464  -49.9
 0.350  0.5876  -86.3  21.554  129.3  0.0374   54.5  0.7007  -56.2
 0.400  0.5786  -94.7  20.117  124.4  0.0401   51.7  0.6579  -61.8
 0.450  0.5705 -102.4  18.765  120.1  0.0426   49.3  0.6180  -67.0
 0.500  0.5643 -109.3  17.522  116.2  0.0447   47.4  0.5816  -71.9
 0.600  0.5545 -121.3  15.379  109.3  0.0482   44.3  0.5195  -80.7
 0.700  0.5483 -131.2  13.605  103.7  0.0511   42.3  0.4691  -88.4
 0.800  0.5447 -139.5  12.141   98.9  0.0537   40.8  0.4285  -95.4
 0.900  0.5430 -146.6  10.936   94.7  0.0561   39.8  0.3956 -101.8
 1.000  0.5436 -153.1   9.927   90.9  0.0583   39.1  0.3690 -108.1
 1.100  0.5439 -158.4   9.067   87.5  0.0606   38.6  0.3471 -113.6
 1.200  0.5452 -163.5   8.330   84.4  0.0628   38.1  0.3296 -119.3
 1.300  0.5469 -168.0   7.701   81.5  0.0650   37.7  0.3148 -124.4
 1.400  0.5491 -172.1   7.152   78.8  0.0673   37.4  0.3036 -129.5
 1.500  0.5497 -175.9   6.679   76.3  0.0695   37.1  0.2934 -134.3
 1.600  0.5527 -179.4   6.251   73.9  0.0718   36.9  0.2859 -138.7
 1.700  0.5546  177.1   5.880   71.6  0.0741   36.5  0.2796 -143.2
 1.800  0.5563  174.2   5.545   69.4  0.0765   36.2  0.2739 -147.2
 1.900  0.5594  171.0   5.237   67.2  0.0788   35.7  0.2711 -151.7
 2.000  0.5597  168.2   4.970   65.2  0.0812   35.4  0.2668 -155.3
 2.200  0.5644  162.6   4.499   61.0  0.0858   34.4  0.2638 -163.0
 2.400  0.5702  157.4   4.104   57.2  0.0904   33.3  0.2643 -170.4
 2.600  0.5794  152.5   3.769   53.4  0.0950   32.1  0.2672 -177.3
 2.800  0.5866  148.1   3.479   49.9  0.0996   31.0  0.2716  176.5
 3.000  0.5970  143.9   3.229   46.4  0.1041   29.7  0.2772  170.7
 3.500  0.6246  133.7   2.724   37.9  0.1148   25.9  0.2997  157.6
 4.000  0.6501  124.8   2.341   29.8  0.1252   21.9  0.3258  147.2
 4.500  0.6666  117.6   2.035   22.3  0.1342   17.7  0.3491  138.9
 5.000  0.6752  111.8   1.797   15.6  0.1427   14.0  0.3655  132.1
 5.500  0.6871  106.0   1.614    9.2  0.1509   10.2  0.3843  126.0
 6.000  0.7046  100.3   1.469    2.8  0.1594    6.3  0.4067  119.8
 6.500  0.7233   94.9   1.347   -4.0  0.1679    1.8  0.4264  113.6
 7.000  0.7371   89.6   1.247  -10.7  0.1768   -2.9  0.4412  107.1
 7.500  0.7460   83.9   1.158  -17.7  0.1846   -8.3  0.4606  101.1
 8.000  0.7546   77.4   1.060  -24.8  0.1882  -14.3  0.4827   94.8
 8.500  0.7668   70.7   0.959  -31.3  0.1867  -19.3  0.5086   88.1
 9.000  0.7961   64.9   0.874  -36.5  0.1855  -22.8  0.5500   82.6
 9.500  0.8430   60.4   0.815  -41.3  0.1864  -25.9  0.6030   78.6
10.000  0.8780   57.2   0.738  -46.1  0.1872  -29.5  0.6475   75.0
!
!  f       Fmin   Gammaopt  rn/50
! GHz       dB    MAG  ANG    -
 0.900      0.95  0.03 -151   0.13
 1.800      1.27  0.13 -152   0.12
 2.400      1.38  0.13 -160   0.14
 3.000      1.43  0.22 -145   0.13
 4.000      1.58  0.35 -123   0.17
 5.000      2.03  0.43 -103   0.28
 6.000      2.40  0.47  -91   0.43
!
! (c) 2009  Infineon Technologies AG, Munich