! Infineon Technologies  Discrete & RF Semiconductors
! BFP420
!
! VCE =  0.5 V,  IC =  25 mA
! Common Emitter S-Parameters:                            Nov 2009
# GHz  S  MA  R  50
!  f         S11            S21            S12            S22
! GHz     MAG   ANG      MAG   ANG      MAG   ANG      MAG   ANG
 0.010  0.4300  -10.8  38.160  178.7  0.0020   96.7  0.7964    0.1
 0.020  0.4426  -13.4  40.804  175.1  0.0032   90.7  0.8219   -5.9
 0.050  0.4436  -31.1  40.295  166.7  0.0076   80.3  0.8159  -16.2
 0.100  0.4630  -57.9  38.157  153.9  0.0138   71.8  0.7769  -31.5
 0.150  0.4831  -79.6  34.606  142.9  0.0190   64.2  0.7174  -45.4
 0.200  0.5033  -95.5  31.324  134.1  0.0229   58.6  0.6554  -57.0
 0.250  0.5140 -108.7  28.074  126.7  0.0259   54.7  0.5992  -67.0
 0.300  0.5264 -119.4  25.217  120.6  0.0283   51.7  0.5486  -75.7
 0.350  0.5342 -127.6  22.832  115.6  0.0304   49.8  0.5066  -83.4
 0.400  0.5407 -134.6  20.746  111.2  0.0321   48.3  0.4717  -90.1
 0.450  0.5460 -140.6  18.897  107.5  0.0336   47.4  0.4422  -96.3
 0.500  0.5501 -145.7  17.353  104.2  0.0351   46.8  0.4178 -102.0
 0.600  0.5556 -154.2  14.809   98.6  0.0379   46.2  0.3809 -111.9
 0.700  0.5621 -160.9  12.858   94.1  0.0405   46.1  0.3553 -120.5
 0.800  0.5661 -166.5  11.328   90.1  0.0432   46.2  0.3370 -128.1
 0.900  0.5707 -171.2  10.110   86.7  0.0460   46.4  0.3240 -134.7
 1.000  0.5749 -175.5   9.113   83.6  0.0487   46.6  0.3157 -140.9
 1.100  0.5781 -179.1   8.284   80.8  0.0516   46.8  0.3093 -146.3
 1.200  0.5818  177.5   7.584   78.1  0.0544   46.8  0.3063 -151.5
 1.300  0.5849  174.4   6.988   75.7  0.0574   46.7  0.3032 -155.9
 1.400  0.5888  171.5   6.470   73.4  0.0603   46.6  0.3026 -160.1
 1.500  0.5909  168.8   6.028   71.1  0.0632   46.3  0.3017 -164.1
 1.600  0.5931  166.4   5.638   69.0  0.0662   46.1  0.3022 -167.6
 1.700  0.5965  163.7   5.292   67.0  0.0692   45.7  0.3031 -171.0
 1.800  0.5978  161.4   4.984   64.9  0.0722   45.2  0.3033 -174.1
 1.900  0.6010  159.1   4.703   63.0  0.0752   44.6  0.3065 -177.3
 2.000  0.6011  157.0   4.464   61.1  0.0783   44.1  0.3071  179.9
 2.200  0.6061  152.5   4.033   57.3  0.0842   42.7  0.3123  174.3
 2.400  0.6129  148.2   3.672   53.7  0.0899   41.2  0.3198  169.1
 2.600  0.6217  144.1   3.370   50.0  0.0955   39.5  0.3281  164.2
 2.800  0.6290  140.4   3.112   46.8  0.1010   38.0  0.3367  159.8
 3.000  0.6378  136.9   2.886   43.4  0.1065   36.2  0.3460  155.5
 3.500  0.6641  128.0   2.428   35.3  0.1192   31.5  0.3735  145.9
 4.000  0.6870  120.0   2.087   27.5  0.1310   26.5  0.4013  137.7
 4.500  0.7013  113.5   1.814   20.2  0.1411   21.5  0.4238  130.9
 5.000  0.7078  108.3   1.602   13.8  0.1504   17.2  0.4383  125.1
 5.500  0.7174  102.9   1.441    7.6  0.1596   12.9  0.4563  119.8
 6.000  0.7338   97.4   1.314    1.4  0.1689    8.3  0.4785  114.2
 6.500  0.7512   92.3   1.204   -5.2  0.1777    3.3  0.4968  108.5
 7.000  0.7637   87.2   1.117  -11.9  0.1870   -1.8  0.5104  102.3
 7.500  0.7711   81.6   1.039  -18.7  0.1947   -7.7  0.5276   96.5
 8.000  0.7775   75.4   0.950  -25.7  0.1978  -13.9  0.5464   90.6
 8.500  0.7870   68.9   0.860  -31.9  0.1953  -19.1  0.5682   84.4
 9.000  0.8141   63.2   0.784  -36.8  0.1937  -22.6  0.6065   79.3
 9.500  0.8596   58.9   0.733  -41.4  0.1945  -25.9  0.6571   75.5
10.000  0.8924   55.8   0.665  -45.9  0.1948  -29.7  0.6985   71.9
!
!  f       Fmin   Gammaopt  rn/50
! GHz       dB    MAG  ANG    -
 0.900      1.38  0.22 -154   0.13
 1.800      1.65  0.29 -143   0.13
 2.400      1.81  0.26 -138   0.17
 3.000      1.83  0.34 -129   0.18
 4.000      1.97  0.45 -112   0.27
 5.000      2.40  0.49  -95   0.44
 6.000      2.85  0.54  -84   0.65
!
! (c) 2009  Infineon Technologies AG, Munich