! Infineon Technologies  Discrete & RF Semiconductors
! BFP420
!
! VCE =  0.5 V,  IC =  4.0 mA
! Common Emitter S-Parameters:                            Nov 2009
# GHz  S  MA  R  50
!  f         S11            S21            S12            S22
! GHz     MAG   ANG      MAG   ANG      MAG   ANG      MAG   ANG
 0.010  0.8560   -1.6  13.021  179.3  0.0012   82.1  0.9790   -0.2
 0.020  0.8588   -2.7  12.726  178.4  0.0032   91.5  0.9823   -1.8
 0.050  0.8543   -6.5  12.774  175.2  0.0076   87.6  0.9809   -4.7
 0.100  0.8538  -13.6  12.795  170.4  0.0152   82.8  0.9750   -9.4
 0.150  0.8469  -20.2  12.664  165.6  0.0224   79.2  0.9644  -14.0
 0.200  0.8405  -26.8  12.487  160.9  0.0296   75.2  0.9497  -18.5
 0.250  0.8284  -33.3  12.211  156.2  0.0363   71.8  0.9323  -23.0
 0.300  0.8170  -39.7  11.980  151.8  0.0427   68.3  0.9109  -27.3
 0.350  0.8043  -45.8  11.672  147.6  0.0487   65.0  0.8878  -31.5
 0.400  0.7926  -51.8  11.350  143.5  0.0541   62.0  0.8627  -35.4
 0.450  0.7775  -57.6  11.012  139.5  0.0593   58.9  0.8373  -39.2
 0.500  0.7640  -63.2  10.653  135.8  0.0640   56.2  0.8102  -42.9
 0.600  0.7366  -74.0   9.954  128.6  0.0722   51.1  0.7575  -49.8
 0.700  0.7115  -83.9   9.266  122.3  0.0789   46.6  0.7054  -56.0
 0.800  0.6896  -92.9   8.605  116.6  0.0845   42.7  0.6567  -61.7
 0.900  0.6706 -101.4   8.014  111.4  0.0890   39.3  0.6119  -66.9
 1.000  0.6550 -109.3   7.473  106.7  0.0930   36.3  0.5707  -71.9
 1.100  0.6418 -116.5   6.973  102.4  0.0963   33.6  0.5339  -76.4
 1.200  0.6307 -123.4   6.522   98.3  0.0991   31.2  0.4996  -80.9
 1.300  0.6223 -129.6   6.121   94.6  0.1015   29.1  0.4696  -85.0
 1.400  0.6150 -135.6   5.757   91.0  0.1036   27.2  0.4425  -89.0
 1.500  0.6089 -141.0   5.434   87.8  0.1056   25.5  0.4173  -92.9
 1.600  0.6051 -146.2   5.134   84.7  0.1071   24.0  0.3953  -96.5
 1.700  0.6003 -151.3   4.868   81.7  0.1087   22.5  0.3750 -100.2
 1.800  0.5970 -155.7   4.615   78.9  0.1100   21.2  0.3570 -103.7
 1.900  0.5955 -160.4   4.390   76.1  0.1114   19.9  0.3403 -107.5
 2.000  0.5923 -164.5   4.186   73.6  0.1127   18.8  0.3252 -110.7
 2.200  0.5899 -172.7   3.824   68.5  0.1148   16.7  0.2986 -118.0
 2.400  0.5902  179.9   3.511   63.8  0.1167   14.7  0.2768 -125.5
 2.600  0.5949  172.8   3.245   59.2  0.1183   12.9  0.2594 -133.2
 2.800  0.5986  166.6   3.009   55.0  0.1197   11.5  0.2459 -140.7
 3.000  0.6056  160.8   2.803   50.9  0.1212   10.0  0.2358 -148.2
 3.500  0.6281  147.2   2.384   41.0  0.1246    6.7  0.2268 -167.3
 4.000  0.6516  135.7   2.062   31.8  0.1284    3.9  0.2339  176.3
 4.500  0.6683  126.6   1.798   23.2  0.1315    1.0  0.2491  163.4
 5.000  0.6765  119.4   1.588   15.6  0.1348   -1.2  0.2625  153.5
 5.500  0.6872  112.6   1.427    8.6  0.1383   -3.3  0.2787  144.9
 6.000  0.7048  105.9   1.299    1.6  0.1429   -5.5  0.2989  136.8
 6.500  0.7239   99.8   1.194   -5.7  0.1486   -8.2  0.3185  129.3
 7.000  0.7386   93.9   1.106  -12.9  0.1553  -11.2  0.3354  121.9
 7.500  0.7482   87.8   1.027  -20.1  0.1619  -15.1  0.3580  114.7
 8.000  0.7579   80.8   0.941  -27.6  0.1654  -19.8  0.3841  107.3
 8.500  0.7677   73.6   0.853  -34.4  0.1645  -23.9  0.4135   99.2
 9.000  0.7961   67.3   0.779  -40.1  0.1637  -26.6  0.4584   92.4
 9.500  0.8440   62.6   0.723  -45.3  0.1648  -29.0  0.5161   87.8
10.000  0.8796   59.2   0.654  -50.5  0.1666  -31.6  0.5689   84.2
!
!  f       Fmin   Gammaopt  rn/50
! GHz       dB    MAG  ANG    -
 0.900      0.61  0.27   32   0.16
 1.800      1.03  0.14   83   0.13
 2.400      1.11  0.17  110   0.14
 3.000      1.23  0.20  153   0.11
 4.000      1.42  0.31 -151   0.11
 5.000      1.77  0.38 -123   0.23
 6.000      2.35  0.47 -104   0.33
!
! (c) 2009  Infineon Technologies AG, Munich