! Infineon Technologies  Discrete & RF Semiconductors
! BFP420
!
! VCE =  0.5 V,  IC =  1.5 mA
! Common Emitter S-Parameters:                            Nov 2009
# GHz  S  MA  R  50
!  f         S11            S21            S12            S22
! GHz     MAG   ANG      MAG   ANG      MAG   ANG      MAG   ANG
 0.010  0.9428   -1.5   5.517  179.4  0.0009   86.4  0.9925   -0.3
 0.020  0.9410   -1.6   5.365  179.1  0.0030   86.5  0.9930   -1.1
 0.050  0.9428   -4.1   5.399  176.8  0.0077   88.8  0.9928   -2.8
 0.100  0.9394   -8.3   5.436  173.6  0.0154   84.5  0.9901   -5.7
 0.150  0.9372  -12.2   5.424  170.3  0.0232   82.4  0.9858   -8.5
 0.200  0.9348  -16.3   5.401  167.0  0.0309   79.9  0.9795  -11.3
 0.250  0.9297  -20.4   5.351  163.6  0.0383   77.4  0.9719  -14.0
 0.300  0.9251  -24.4   5.323  160.5  0.0457   74.8  0.9622  -16.8
 0.350  0.9191  -28.5   5.274  157.4  0.0529   72.2  0.9515  -19.5
 0.400  0.9134  -32.4   5.212  154.2  0.0598   69.8  0.9389  -22.0
 0.450  0.9057  -36.4   5.151  151.1  0.0667   67.3  0.9261  -24.7
 0.500  0.8975  -40.3   5.074  148.1  0.0731   64.9  0.9113  -27.2
 0.600  0.8813  -48.1   4.926  142.1  0.0854   60.2  0.8810  -32.1
 0.700  0.8631  -55.6   4.758  136.5  0.0965   55.7  0.8476  -36.7
 0.800  0.8445  -62.8   4.573  131.2  0.1066   51.5  0.8136  -41.1
 0.900  0.8268  -69.9   4.396  126.2  0.1155   47.5  0.7795  -45.2
 1.000  0.8095  -76.9   4.221  121.4  0.1236   43.8  0.7455  -49.1
 1.100  0.7937  -83.4   4.047  116.9  0.1307   40.3  0.7134  -52.6
 1.200  0.7787  -89.9   3.879  112.4  0.1372   36.9  0.6814  -56.3
 1.300  0.7647  -96.1   3.723  108.4  0.1427   33.8  0.6516  -59.5
 1.400  0.7507 -102.2   3.572  104.3  0.1475   30.7  0.6224  -62.8
 1.500  0.7391 -107.9   3.432  100.6  0.1519   27.9  0.5952  -65.7
 1.600  0.7291 -113.6   3.296   96.8  0.1554   25.2  0.5693  -68.6
 1.700  0.7174 -119.0   3.172   93.4  0.1590   22.6  0.5456  -71.3
 1.800  0.7086 -124.1   3.043   90.0  0.1617   20.1  0.5232  -73.9
 1.900  0.7012 -129.4   2.932   86.7  0.1641   17.8  0.5004  -76.7
 2.000  0.6923 -134.0   2.824   83.6  0.1662   15.6  0.4810  -79.0
 2.200  0.6781 -143.7   2.629   77.5  0.1695   11.3  0.4425  -84.0
 2.400  0.6680 -152.8   2.452   71.7  0.1716    7.2  0.4074  -89.1
 2.600  0.6634 -161.7   2.297   66.2  0.1723    3.5  0.3760  -94.0
 2.800  0.6585 -169.7   2.151   61.1  0.1723    0.1  0.3489  -98.9
 3.000  0.6590 -177.3   2.024   56.1  0.1717   -3.1  0.3245 -103.8
 3.500  0.6675  165.4   1.755   44.2  0.1679  -10.1  0.2766 -117.6
 4.000  0.6829  150.8   1.538   33.3  0.1628  -15.6  0.2476 -132.5
 4.500  0.6968  139.1   1.352   23.1  0.1562  -20.4  0.2359 -147.1
 5.000  0.7035  130.0   1.198   14.4  0.1487  -23.6  0.2335 -160.0
 5.500  0.7119  121.6   1.078    6.3  0.1418  -25.9  0.2380 -172.2
 6.000  0.7278  113.7   0.983   -1.4  0.1364  -27.1  0.2489  175.9
 6.500  0.7472  106.6   0.906   -9.3  0.1338  -27.8  0.2634  165.2
 7.000  0.7621   99.9   0.840  -17.1  0.1336  -28.4  0.2791  155.0
 7.500  0.7725   92.9   0.781  -24.7  0.1349  -29.7  0.3014  144.7
 8.000  0.7796   85.2   0.716  -32.5  0.1352  -31.8  0.3271  134.0
 8.500  0.7865   77.3   0.649  -39.5  0.1331  -33.6  0.3551  122.7
 9.000  0.8130   70.5   0.592  -45.5  0.1317  -34.0  0.4011  112.6
 9.500  0.8606   65.3   0.547  -50.9  0.1328  -34.2  0.4662  105.6
10.000  0.8971   61.6   0.492  -56.3  0.1359  -34.9  0.5332  100.4
!
!  f       Fmin   Gammaopt  rn/50
! GHz       dB    MAG  ANG    -
 0.900      0.52  0.55   33   0.27
 1.800      1.07  0.35   77   0.21
 2.400      1.18  0.36  101   0.18
 3.000      1.41  0.36  134   0.13
 4.000      1.68  0.40 -172   0.10
 5.000      2.08  0.44 -130   0.32
 6.000      2.89  0.57 -114   0.39
!
! (c) 2009  Infineon Technologies AG, Munich