! Infineon Technologies  Discrete & RF Semiconductors
! BFP420
!
! VCE =  0.5 V,  IC =  0.5 mA
! Common Emitter S-Parameters:                            Nov 2009
# GHz  S  MA  R  50
!  f         S11            S21            S12            S22
! GHz     MAG   ANG      MAG   ANG      MAG   ANG      MAG   ANG
 0.010  0.9872   -1.4   2.007  179.4  0.0011   75.0  0.9972   -0.2
 0.020  0.9803   -1.1   1.960  179.4  0.0032   90.1  0.9973   -0.7
 0.050  0.9750   -2.9   1.969  177.4  0.0077   88.3  0.9973   -2.0
 0.100  0.9783   -5.7   1.979  174.9  0.0155   86.2  0.9957   -4.0
 0.150  0.9771   -8.5   1.982  172.2  0.0234   84.3  0.9929   -5.9
 0.200  0.9778  -11.4   1.980  169.6  0.0310   82.2  0.9889   -7.9
 0.250  0.9732  -14.2   1.970  166.8  0.0387   80.3  0.9842   -9.8
 0.300  0.9724  -17.2   1.969  164.2  0.0463   78.3  0.9785  -11.8
 0.350  0.9690  -20.1   1.963  161.7  0.0539   76.3  0.9718  -13.6
 0.400  0.9661  -22.9   1.952  159.1  0.0613   74.3  0.9643  -15.5
 0.450  0.9635  -25.8   1.941  156.5  0.0687   72.3  0.9563  -17.3
 0.500  0.9592  -28.6   1.929  153.8  0.0759   70.3  0.9471  -19.2
 0.600  0.9517  -34.4   1.900  148.8  0.0900   66.4  0.9282  -22.7
 0.700  0.9425  -40.1   1.871  143.8  0.1036   62.5  0.9069  -26.1
 0.800  0.9318  -45.7   1.834  139.1  0.1162   58.7  0.8847  -29.3
 0.900  0.9216  -51.3   1.797  134.4  0.1282   55.0  0.8620  -32.4
 1.000  0.9107  -56.9   1.759  129.9  0.1397   51.4  0.8387  -35.4
 1.100  0.9004  -62.3   1.719  125.5  0.1502   48.0  0.8159  -38.2
 1.200  0.8891  -67.8   1.681  121.1  0.1603   44.6  0.7930  -40.9
 1.300  0.8784  -73.1   1.642  117.0  0.1696   41.3  0.7712  -43.5
 1.400  0.8680  -78.5   1.605  112.8  0.1781   38.0  0.7489  -46.1
 1.500  0.8574  -83.5   1.568  109.0  0.1862   34.9  0.7275  -48.5
 1.600  0.8482  -88.7   1.533  104.9  0.1930   31.8  0.7066  -50.9
 1.700  0.8375  -93.8   1.499  101.2  0.2000   28.9  0.6872  -53.0
 1.800  0.8274  -98.7   1.460   97.5  0.2059   25.9  0.6683  -55.2
 1.900  0.8191 -103.8   1.430   93.8  0.2115   23.0  0.6485  -57.5
 2.000  0.8087 -108.2   1.395   90.4  0.2162   20.3  0.6313  -59.4
 2.200  0.7911 -117.9   1.336   83.3  0.2246   14.9  0.5962  -63.5
 2.400  0.7749 -127.3   1.276   76.6  0.2312    9.5  0.5636  -67.5
 2.600  0.7625 -136.7   1.220   70.1  0.2354    4.4  0.5330  -71.3
 2.800  0.7508 -145.4   1.165   64.0  0.2379   -0.4  0.5057  -75.0
 3.000  0.7446 -153.9   1.116   58.1  0.2389   -5.0  0.4810  -78.7
 3.500  0.7368 -174.1   1.003   43.9  0.2357  -15.8  0.4269  -88.6
 4.000  0.7430  168.5   0.905   30.8  0.2274  -25.1  0.3883  -99.3
 4.500  0.7516  154.0   0.810   18.7  0.2146  -33.8  0.3651 -110.7
 5.000  0.7542  142.6   0.725    8.4  0.1978  -41.0  0.3515 -122.0
 5.500  0.7598  132.4   0.655   -0.8  0.1786  -47.0  0.3430 -133.4
 6.000  0.7728  123.0   0.600   -9.3  0.1600  -51.1  0.3429 -145.3
 6.500  0.7911  114.6   0.554  -17.5  0.1444  -53.8  0.3499 -157.2
 7.000  0.8066  106.9   0.514  -25.4  0.1311  -55.1  0.3588 -169.4
 7.500  0.8165   98.9   0.477  -33.0  0.1199  -55.5  0.3727  177.8
 8.000  0.8215   90.3   0.436  -40.4  0.1095  -55.2  0.3900  164.8
 8.500  0.8229   81.6   0.393  -47.0  0.0997  -53.0  0.4068  150.9
 9.000  0.8448   74.1   0.357  -52.5  0.0941  -48.2  0.4435  137.2
 9.500  0.8918   68.3   0.328  -56.7  0.0937  -42.8  0.5085  126.3
10.000  0.9282   64.0   0.293  -61.0  0.0980  -38.9  0.5854  117.8
!
!  f       Fmin   Gammaopt  rn/50
! GHz       dB    MAG  ANG    -
 0.900      0.68  0.78   35   0.65
 1.800      1.42  0.60   75   0.50
 2.400      1.57  0.58   98   0.37
 3.000      2.10  0.58  128   0.24
 4.000      2.49  0.57  177   0.09
!
! (c) 2009  Infineon Technologies AG, Munich