! Infineon Technologies  Discrete & RF Semiconductors
! BFP420
!
! VCE =  0.5 V,  IC =  35 mA
! Common Emitter S-Parameters:                            Nov 2009
# GHz  S  MA  R  50
!  f         S11            S21            S12            S22
! GHz     MAG   ANG      MAG   ANG      MAG   ANG      MAG   ANG
 0.010  0.3154  -18.2  35.104  177.7  0.0024   98.0  0.5405   -1.6
 0.020  0.3426  -25.5  37.700  172.9  0.0041   89.2  0.5633  -11.6
 0.050  0.3752  -56.3  36.366  161.5  0.0097   77.5  0.5601  -29.8
 0.100  0.4638  -90.9  32.589  144.8  0.0167   64.4  0.5305  -55.4
 0.150  0.5305 -112.9  27.907  132.4  0.0215   56.1  0.4919  -76.2
 0.200  0.5710 -126.6  24.078  123.3  0.0247   50.8  0.4594  -92.0
 0.250  0.5964 -137.1  20.783  116.4  0.0271   47.6  0.4345 -104.9
 0.300  0.6147 -145.1  18.133  110.8  0.0289   45.8  0.4167 -115.0
 0.350  0.6274 -151.1  16.109  106.6  0.0306   44.9  0.4039 -123.3
 0.400  0.6354 -156.1  14.392  102.7  0.0321   44.4  0.3952 -130.4
 0.450  0.6417 -160.4  12.946   99.7  0.0335   44.4  0.3883 -136.2
 0.500  0.6467 -163.9  11.792   96.9  0.0350   44.5  0.3838 -141.3
 0.600  0.6539 -169.9   9.929   92.2  0.0378   45.1  0.3791 -149.8
 0.700  0.6596 -174.7   8.547   88.4  0.0407   45.9  0.3767 -156.1
 0.800  0.6632 -178.8   7.507   85.0  0.0438   46.5  0.3765 -161.7
 0.900  0.6666  177.7   6.672   82.0  0.0468   47.0  0.3769 -166.3
 1.000  0.6707  174.4   5.997   79.2  0.0500   47.4  0.3790 -170.3
 1.100  0.6728  171.6   5.453   76.7  0.0532   47.7  0.3802 -173.8
 1.200  0.6762  168.9   4.994   74.3  0.0565   47.7  0.3840 -177.1
 1.300  0.6783  166.4   4.597   72.0  0.0598   47.6  0.3862  179.9
 1.400  0.6810  164.0   4.255   69.8  0.0631   47.5  0.3897  177.2
 1.500  0.6827  161.7   3.963   67.7  0.0665   47.2  0.3917  174.5
 1.600  0.6845  159.6   3.713   65.6  0.0698   46.8  0.3946  172.2
 1.700  0.6866  157.3   3.483   63.6  0.0731   46.3  0.3977  169.9
 1.800  0.6876  155.4   3.280   61.6  0.0765   45.8  0.3991  167.8
 1.900  0.6904  153.1   3.096   59.8  0.0797   45.1  0.4031  165.6
 2.000  0.6891  151.2   2.946   57.9  0.0831   44.4  0.4048  163.6
 2.200  0.6922  147.1   2.664   54.1  0.0895   42.8  0.4121  159.6
 2.400  0.6978  143.2   2.426   50.5  0.0957   41.1  0.4207  155.7
 2.600  0.7045  139.5   2.227   46.8  0.1017   39.3  0.4291  152.1
 2.800  0.7098  136.0   2.059   43.5  0.1076   37.5  0.4373  148.7
 3.000  0.7169  132.8   1.914   40.2  0.1134   35.6  0.4464  145.4
 3.500  0.7389  124.3   1.613   32.0  0.1266   30.4  0.4727  137.5
 4.000  0.7556  116.6   1.392   24.2  0.1387   25.2  0.4965  130.5
 4.500  0.7646  110.3   1.216   17.0  0.1487   20.0  0.5145  124.5
 5.000  0.7663  105.3   1.079   10.7  0.1582   15.6  0.5244  119.4
 5.500  0.7725  100.1   0.977    4.7  0.1674   11.2  0.5389  114.7
 6.000  0.7855   94.8   0.899   -1.4  0.1770    6.6  0.5593  109.5
 6.500  0.7998   89.7   0.828   -7.8  0.1858    1.4  0.5756  104.0
 7.000  0.8091   84.6   0.775  -14.3  0.1948   -3.9  0.5865   98.2
 7.500  0.8133   79.2   0.726  -21.0  0.2021   -9.9  0.6003   92.5
 8.000  0.8157   73.1   0.667  -27.8  0.2043  -16.2  0.6150   86.8
 8.500  0.8199   66.8   0.608  -33.6  0.2009  -21.2  0.6304   81.0
 9.000  0.8429   61.3   0.557  -38.2  0.1987  -24.6  0.6635   76.3
 9.500  0.8843   57.2   0.526  -42.4  0.1994  -27.8  0.7108   72.7
10.000  0.9132   54.2   0.482  -46.4  0.1993  -31.6  0.7492   69.2
!
!  f       Fmin   Gammaopt  rn/50
! GHz       dB    MAG  ANG    -
 0.900      1.64  0.30 -155   0.13
 1.800      1.90  0.37 -142   0.15
 2.400      2.10  0.34 -134   0.19
 3.000      2.11  0.40 -126   0.22
 4.000      2.25  0.50 -110   0.35
 5.000      2.73  0.54  -94   0.59
 6.000      3.16  0.59  -82   0.84
!
! (c) 2009  Infineon Technologies AG, Munich