! Infineon Technologies  Discrete & RF Semiconductors
! BFP420
!
! VCE =  0.5 V,  IC =  3.0 mA
! Common Emitter S-Parameters:                            Nov 2009
# GHz  S  MA  R  50
!  f         S11            S21            S12            S22
! GHz     MAG   ANG      MAG   ANG      MAG   ANG      MAG   ANG
 0.010  0.8910   -1.9  10.114  179.4  0.0011  100.7  0.9847   -0.2
 0.020  0.8923   -2.3   9.883  178.7  0.0030   88.0  0.9867   -1.5
 0.050  0.8905   -5.4   9.928  175.8  0.0078   87.4  0.9859   -3.9
 0.100  0.8868  -11.5   9.963  171.7  0.0152   83.4  0.9815   -7.9
 0.150  0.8820  -17.0   9.904  167.4  0.0228   80.3  0.9737  -11.9
 0.200  0.8778  -22.7   9.804  163.3  0.0301   77.0  0.9625  -15.7
 0.250  0.8682  -28.2   9.644  159.0  0.0372   73.8  0.9497  -19.5
 0.300  0.8585  -33.7   9.514  155.1  0.0440   70.6  0.9331  -23.3
 0.350  0.8491  -39.1   9.337  151.3  0.0505   67.6  0.9150  -26.9
 0.400  0.8385  -44.4   9.136  147.5  0.0565   64.6  0.8947  -30.4
 0.450  0.8262  -49.6   8.932  143.8  0.0624   61.8  0.8740  -33.8
 0.500  0.8134  -54.6   8.706  140.2  0.0677   59.2  0.8515  -37.1
 0.600  0.7897  -64.3   8.253  133.4  0.0774   54.0  0.8062  -43.3
 0.700  0.7645  -73.6   7.787  127.3  0.0856   49.4  0.7595  -49.1
 0.800  0.7423  -82.1   7.316  121.6  0.0926   45.2  0.7145  -54.4
 0.900  0.7217  -90.4   6.887  116.3  0.0984   41.5  0.6716  -59.3
 1.000  0.7031  -98.1   6.484  111.5  0.1036   38.1  0.6310  -64.0
 1.100  0.6884 -105.3   6.103  107.0  0.1078   35.1  0.5941  -68.2
 1.200  0.6742 -112.2   5.751  102.7  0.1115   32.2  0.5588  -72.4
 1.300  0.6624 -118.7   5.430   98.9  0.1146   29.7  0.5274  -76.2
 1.400  0.6526 -124.7   5.135   95.1  0.1172   27.3  0.4980  -80.0
 1.500  0.6442 -130.4   4.872   91.7  0.1196   25.2  0.4706  -83.5
 1.600  0.6375 -135.9   4.621   88.3  0.1215   23.2  0.4464  -86.8
 1.700  0.6302 -141.2   4.400   85.2  0.1233   21.3  0.4236  -90.2
 1.800  0.6252 -146.0   4.185   82.2  0.1248   19.6  0.4033  -93.3
 1.900  0.6207 -151.0   3.992   79.3  0.1262   18.0  0.3835  -96.8
 2.000  0.6167 -155.2   3.817   76.5  0.1274   16.5  0.3661  -99.6
 2.200  0.6105 -164.0   3.503   71.1  0.1294   13.7  0.3341 -106.1
 2.400  0.6077 -172.2   3.228   66.1  0.1309   11.0  0.3064 -112.8
 2.600  0.6103 -180.0   2.992   61.3  0.1318    8.7  0.2830 -119.6
 2.800  0.6116  173.2   2.781   56.8  0.1324    6.8  0.2639 -126.3
 3.000  0.6167  166.9   2.598   52.4  0.1330    4.9  0.2481 -133.2
 3.500  0.6358  152.2   2.218   42.0  0.1338    0.8  0.2249 -152.0
 4.000  0.6577  139.8   1.924   32.3  0.1347   -2.5  0.2208 -169.5
 4.500  0.6739  130.0   1.681   23.3  0.1351   -5.4  0.2293  176.0
 5.000  0.6821  122.3   1.486   15.5  0.1357   -7.5  0.2398  164.7
 5.500  0.6924  115.0   1.335    8.1  0.1367   -9.3  0.2537  154.9
 6.000  0.7094  108.0   1.216    0.9  0.1390  -10.9  0.2720  145.7
 6.500  0.7284  101.7   1.118   -6.5  0.1429  -12.9  0.2912  137.5
 7.000  0.7430   95.6   1.036  -13.9  0.1483  -15.2  0.3085  129.5
 7.500  0.7535   89.2   0.963  -21.3  0.1540  -18.5  0.3318  121.6
 8.000  0.7621   82.0   0.882  -28.9  0.1570  -22.6  0.3587  113.4
 8.500  0.7715   74.6   0.800  -35.8  0.1560  -26.2  0.3887  104.6
 9.000  0.7995   68.2   0.731  -41.6  0.1553  -28.4  0.4345   97.1
 9.500  0.8475   63.4   0.678  -46.9  0.1563  -30.3  0.4942   92.1
10.000  0.8834   59.8   0.613  -52.2  0.1584  -32.5  0.5508   88.2
!
!  f       Fmin   Gammaopt  rn/50
! GHz       dB    MAG  ANG    -
 0.900      0.57  0.35   33   0.18
 1.800      1.02  0.20   79   0.14
 2.400      1.10  0.23  104   0.14
 3.000      1.25  0.24  144   0.11
 4.000      1.46  0.33 -159   0.10
 5.000      1.90  0.39 -128   0.22
 6.000      2.46  0.48 -107   0.35
!
! (c) 2009  Infineon Technologies AG, Munich