! Infineon Technologies  Discrete & RF Semiconductors
! BFP420
!
! VCE =  0.5 V,  IC =  1.0 mA
! Common Emitter S-Parameters:                            Nov 2009
# GHz  S  MA  R  50
!  f         S11            S21            S12            S22
! GHz     MAG   ANG      MAG   ANG      MAG   ANG      MAG   ANG
 0.010  0.9624   -1.6   3.631  179.5  0.0012   93.2  0.9950   -0.2
 0.020  0.9599   -1.3   3.522  179.3  0.0032   88.8  0.9955   -0.9
 0.050  0.9567   -3.3   3.546  177.1  0.0077   88.0  0.9951   -2.3
 0.100  0.9600   -6.8   3.569  174.4  0.0155   85.7  0.9932   -4.7
 0.150  0.9596  -10.2   3.568  171.4  0.0233   83.4  0.9898   -7.1
 0.200  0.9576  -13.6   3.562  168.5  0.0309   81.1  0.9849   -9.4
 0.250  0.9537  -17.1   3.535  165.4  0.0386   78.9  0.9792  -11.8
 0.300  0.9503  -20.6   3.526  162.7  0.0462   76.6  0.9718  -14.1
 0.350  0.9465  -24.0   3.507  159.9  0.0536   74.3  0.9633  -16.3
 0.400  0.9429  -27.3   3.477  157.0  0.0608   72.1  0.9538  -18.5
 0.450  0.9372  -30.8   3.450  154.2  0.0680   69.9  0.9438  -20.7
 0.500  0.9314  -34.2   3.415  151.4  0.0749   67.7  0.9321  -22.9
 0.600  0.9198  -40.8   3.342  146.0  0.0882   63.4  0.9082  -27.1
 0.700  0.9058  -47.5   3.261  140.7  0.1006   59.1  0.8814  -31.1
 0.800  0.8920  -53.9   3.166  135.7  0.1121   55.1  0.8536  -34.9
 0.900  0.8771  -60.3   3.074  130.8  0.1226   51.2  0.8251  -38.5
 1.000  0.8632  -66.6   2.983  126.2  0.1324   47.5  0.7963  -42.0
 1.100  0.8490  -72.7   2.886  121.7  0.1413   43.9  0.7686  -45.2
 1.200  0.8360  -78.7   2.795  117.3  0.1495   40.4  0.7406  -48.4
 1.300  0.8227  -84.5   2.705  113.2  0.1568   37.2  0.7143  -51.4
 1.400  0.8093  -90.3   2.616  109.1  0.1634   33.9  0.6880  -54.3
 1.500  0.7982  -95.8   2.535  105.3  0.1695   30.9  0.6629  -57.0
 1.600  0.7868 -101.3   2.456  101.4  0.1744   27.9  0.6387  -59.6
 1.700  0.7746 -106.6   2.378   97.8  0.1796   25.1  0.6164  -62.0
 1.800  0.7647 -111.7   2.297   94.3  0.1835   22.4  0.5949  -64.4
 1.900  0.7559 -117.0   2.229   90.8  0.1872   19.7  0.5729  -67.0
 2.000  0.7461 -121.7   2.159   87.6  0.1904   17.2  0.5539  -69.1
 2.200  0.7293 -131.5   2.034   81.0  0.1956   12.3  0.5155  -73.5
 2.400  0.7153 -140.8   1.916   74.8  0.1993    7.5  0.4801  -78.0
 2.600  0.7072 -150.1   1.809   68.9  0.2012    3.0  0.4478  -82.3
 2.800  0.6969 -158.6   1.706   63.3  0.2018   -1.1  0.4192  -86.5
 3.000  0.6945 -166.6   1.618   57.9  0.2014   -5.0  0.3934  -90.6
 3.500  0.6955  174.5   1.420   45.0  0.1969  -13.9  0.3397 -102.0
 4.000  0.7072  158.5   1.259   33.2  0.1893  -21.3  0.3031 -114.3
 4.500  0.7185  145.6   1.114   22.2  0.1791  -27.8  0.2829 -127.2
 5.000  0.7235  135.5   0.990   12.8  0.1668  -32.8  0.2734 -139.3
 5.500  0.7308  126.3   0.891    4.2  0.1541  -36.5  0.2708 -151.3
 6.000  0.7457  117.6   0.815   -4.0  0.1426  -38.6  0.2759 -163.6
 6.500  0.7642  110.1   0.752  -12.0  0.1341  -39.6  0.2864 -175.5
 7.000  0.7795  102.9   0.697  -19.9  0.1285  -39.8  0.2990  173.0
 7.500  0.7900   95.6   0.648  -27.6  0.1249  -40.1  0.3178  161.3
 8.000  0.7962   87.5   0.594  -35.4  0.1216  -40.7  0.3399  149.2
 8.500  0.8012   79.2   0.538  -42.4  0.1172  -40.7  0.3637  136.3
 9.000  0.8253   72.1   0.490  -48.4  0.1148  -39.2  0.4069  124.3
 9.500  0.8730   66.7   0.451  -53.5  0.1156  -37.4  0.4734  115.4
10.000  0.9092   62.7   0.404  -58.7  0.1193  -36.6  0.5461  108.8
!
!  f       Fmin   Gammaopt  rn/50
! GHz       dB    MAG  ANG    -
 0.900      0.53  0.67   34   0.35
 1.800      1.15  0.44   77   0.27
 2.400      1.28  0.44  100   0.22
 3.000      1.61  0.45  131   0.15
 4.000      1.90  0.47 -177   0.09
 5.000      2.32  0.44 -133   0.45
 6.000      3.43  0.60 -118   0.25
!
! (c) 2009  Infineon Technologies AG, Munich