! Infineon Technologies  Discrete & RF Semiconductors
! BFP420
!
! VCE =  0.5 V,  IC =  1.2 mA
! Common Emitter S-Parameters:                            Nov 2009
# GHz  S  MA  R  50
!  f         S11            S21            S12            S22
! GHz     MAG   ANG      MAG   ANG      MAG   ANG      MAG   ANG
 0.010  0.9612   -1.6   4.534  179.3  0.0014   81.8  0.9936   -0.2
 0.020  0.9490   -1.5   4.403  179.2  0.0031   90.1  0.9942   -1.0
 0.050  0.9494   -3.6   4.436  177.0  0.0076   87.5  0.9939   -2.6
 0.100  0.9501   -7.5   4.462  174.0  0.0155   85.6  0.9919   -5.2
 0.150  0.9490  -11.2   4.454  170.9  0.0232   83.1  0.9880   -7.8
 0.200  0.9472  -14.9   4.441  167.8  0.0309   80.6  0.9825  -10.3
 0.250  0.9417  -18.7   4.407  164.6  0.0385   78.2  0.9760  -12.8
 0.300  0.9385  -22.4   4.390  161.6  0.0459   75.7  0.9673  -15.4
 0.350  0.9334  -26.1   4.359  158.7  0.0533   73.3  0.9579  -17.8
 0.400  0.9290  -29.8   4.316  155.7  0.0603   70.9  0.9469  -20.2
 0.450  0.9220  -33.4   4.272  152.8  0.0674   68.7  0.9358  -22.6
 0.500  0.9154  -37.1   4.220  149.8  0.0741   66.3  0.9225  -25.0
 0.600  0.9015  -44.3   4.113  144.1  0.0869   61.8  0.8956  -29.5
 0.700  0.8854  -51.4   3.995  138.7  0.0987   57.4  0.8656  -33.8
 0.800  0.8692  -58.2   3.860  133.5  0.1095   53.3  0.8348  -37.9
 0.900  0.8525  -65.0   3.729  128.6  0.1192   49.3  0.8035  -41.7
 1.000  0.8368  -71.6   3.600  123.9  0.1282   45.6  0.7719  -45.5
 1.100  0.8221  -77.9   3.465  119.4  0.1362   42.1  0.7419  -48.8
 1.200  0.8071  -84.3   3.342  114.9  0.1435   38.6  0.7117  -52.2
 1.300  0.7933  -90.3   3.220  110.8  0.1499   35.4  0.6836  -55.4
 1.400  0.7803  -96.2   3.101  106.7  0.1556   32.2  0.6559  -58.5
 1.500  0.7680 -101.8   2.991  103.0  0.1608   29.3  0.6293  -61.3
 1.600  0.7575 -107.5   2.884   99.2  0.1649   26.4  0.6040  -64.0
 1.700  0.7453 -112.9   2.785   95.6  0.1692   23.7  0.5808  -66.6
 1.800  0.7365 -117.9   2.681   92.2  0.1725   21.1  0.5587  -69.1
 1.900  0.7272 -123.2   2.591   88.8  0.1756   18.5  0.5363  -71.8
 2.000  0.7173 -127.9   2.502   85.6  0.1781   16.2  0.5167  -74.0
 2.200  0.7024 -137.7   2.343   79.3  0.1822   11.6  0.4780  -78.7
 2.400  0.6903 -147.0   2.196   73.3  0.1849    7.2  0.4426  -83.4
 2.600  0.6835 -156.0   2.063   67.6  0.1861    3.0  0.4103  -88.0
 2.800  0.6769 -164.3   1.938   62.2  0.1863   -0.7  0.3820  -92.5
 3.000  0.6749 -172.2   1.831   57.1  0.1857   -4.3  0.3567  -96.9
 3.500  0.6804  169.7   1.596   44.7  0.1813  -12.2  0.3051 -109.5
 4.000  0.6944  154.4   1.406   33.3  0.1749  -18.7  0.2717 -123.0
 4.500  0.7072  142.2   1.240   22.8  0.1663  -24.2  0.2551 -136.8
 5.000  0.7122  132.6   1.100   13.8  0.1565  -28.3  0.2490 -149.3
 5.500  0.7204  123.8   0.989    5.4  0.1468  -31.2  0.2497 -161.5
 6.000  0.7357  115.6   0.904   -2.5  0.1384  -32.6  0.2578 -173.8
 6.500  0.7549  108.2   0.833  -10.5  0.1331  -33.4  0.2703  174.7
 7.000  0.7699  101.3   0.772  -18.3  0.1304  -33.7  0.2847  163.9
 7.500  0.7801   94.2   0.718  -25.9  0.1296  -34.4  0.3055  152.9
 8.000  0.7873   86.3   0.658  -33.8  0.1285  -35.8  0.3296  141.4
 8.500  0.7933   78.2   0.597  -40.9  0.1254  -36.7  0.3559  129.3
 9.000  0.8186   71.3   0.543  -46.9  0.1237  -36.4  0.4010  118.3
 9.500  0.8661   66.0   0.501  -52.1  0.1247  -35.6  0.4670  110.3
10.000  0.9021   62.1   0.450  -57.5  0.1281  -35.7  0.5369  104.5
!
!  f       Fmin   Gammaopt  rn/50
! GHz       dB    MAG  ANG    -
 0.900      0.53  0.62   33   0.31
 1.800      1.10  0.40   77   0.24
 2.400      1.23  0.41  100   0.20
 3.000      1.51  0.41  132   0.14
 4.000      1.80  0.44 -175   0.09
 5.000      2.23  0.45 -132   0.38
 6.000      3.18  0.57 -116   0.44
!
! (c) 2009  Infineon Technologies AG, Munich