! Infineon Technologies  Discrete & RF Semiconductors
! BFP420
!
! VCE =  0.5 V,  IC =  2.0 mA
! Common Emitter S-Parameters:                            Nov 2009
# GHz  S  MA  R  50
!  f         S11            S21            S12            S22
! GHz     MAG   ANG      MAG   ANG      MAG   ANG      MAG   ANG
 0.010  0.9278   -1.5   7.000  179.4  0.0011   83.9  0.9904   -0.2
 0.020  0.9257   -1.8   6.819  179.0  0.0031   87.6  0.9912   -1.2
 0.050  0.9263   -4.6   6.867  176.5  0.0078   86.0  0.9907   -3.2
 0.100  0.9222   -9.2   6.900  173.0  0.0154   84.9  0.9877   -6.4
 0.150  0.9199  -13.8   6.877  169.4  0.0231   81.8  0.9824   -9.6
 0.200  0.9165  -18.3   6.840  165.8  0.0306   78.9  0.9746  -12.7
 0.250  0.9097  -22.8   6.756  162.1  0.0380   76.2  0.9654  -15.8
 0.300  0.9035  -27.4   6.707  158.8  0.0452   73.4  0.9537  -18.9
 0.350  0.8966  -31.9   6.626  155.4  0.0522   70.7  0.9408  -21.9
 0.400  0.8889  -36.3   6.531  152.0  0.0588   68.0  0.9258  -24.8
 0.450  0.8797  -40.7   6.428  148.7  0.0654   65.4  0.9104  -27.7
 0.500  0.8704  -45.0   6.317  145.5  0.0715   62.9  0.8931  -30.5
 0.600  0.8506  -53.5   6.081  139.2  0.0829   58.0  0.8579  -35.8
 0.700  0.8302  -61.7   5.830  133.4  0.0930   53.4  0.8195  -40.9
 0.800  0.8094  -69.4   5.560  127.9  0.1020   49.1  0.7813  -45.6
 0.900  0.7900  -76.9   5.307  122.7  0.1098   45.1  0.7435  -50.0
 1.000  0.7718  -84.2   5.060  117.9  0.1168   41.5  0.7065  -54.2
 1.100  0.7554  -91.1   4.820  113.3  0.1228   38.1  0.6720  -58.1
 1.200  0.7396  -97.8   4.592  108.9  0.1280   34.8  0.6378  -61.9
 1.300  0.7257 -104.2   4.380  104.9  0.1326   31.9  0.6070  -65.3
 1.400  0.7129 -110.3   4.176  100.9  0.1364   29.0  0.5770  -68.8
 1.500  0.7017 -116.1   3.991   97.3  0.1400   26.4  0.5488  -71.9
 1.600  0.6924 -121.7   3.817   93.6  0.1427   23.9  0.5231  -74.9
 1.700  0.6820 -127.2   3.657   90.3  0.1455   21.6  0.4988  -77.9
 1.800  0.6749 -132.2   3.496   87.0  0.1475   19.4  0.4768  -80.6
 1.900  0.6680 -137.5   3.354   83.9  0.1494   17.2  0.4545  -83.7
 2.000  0.6604 -142.0   3.220   80.9  0.1510   15.3  0.4353  -86.1
 2.200  0.6497 -151.5   2.981   75.1  0.1535   11.5  0.3983  -91.6
 2.400  0.6418 -160.3   2.766   69.6  0.1550    8.0  0.3650  -97.1
 2.600  0.6407 -168.8   2.578   64.3  0.1556    4.7  0.3358 -102.7
 2.800  0.6382 -176.5   2.407   59.5  0.1556    1.9  0.3106 -108.2
 3.000  0.6403  176.4   2.258   54.7  0.1552   -0.7  0.2886 -113.8
 3.500  0.6533  160.2   1.943   43.4  0.1528   -6.6  0.2479 -129.7
 4.000  0.6717  146.3   1.696   33.0  0.1498  -11.1  0.2271 -146.2
 4.500  0.6867  135.4   1.487   23.3  0.1457  -14.9  0.2229 -161.5
 5.000  0.6938  126.9   1.316   15.0  0.1416  -17.5  0.2261 -174.3
 5.500  0.7034  118.9   1.182    7.1  0.1380  -19.3  0.2349  174.0
 6.000  0.7193  111.4   1.078   -0.4  0.1359  -20.4  0.2489  163.2
 6.500  0.7391  104.6   0.993   -8.1  0.1363  -21.5  0.2659  153.4
 7.000  0.7537   98.1   0.920  -15.7  0.1387  -22.7  0.2828  144.1
 7.500  0.7640   91.4   0.856  -23.3  0.1420  -24.7  0.3062  134.9
 8.000  0.7718   84.0   0.784  -31.0  0.1438  -27.7  0.3329  125.2
 8.500  0.7798   76.2   0.711  -38.0  0.1423  -30.3  0.3623  115.0
 9.000  0.8067   69.6   0.649  -43.9  0.1414  -31.6  0.4089  106.0
 9.500  0.8548   64.5   0.600  -49.3  0.1424  -32.5  0.4719   99.9
10.000  0.8902   60.9   0.541  -54.8  0.1452  -34.0  0.5349   95.4
!
!  f       Fmin   Gammaopt  rn/50
! GHz       dB    MAG  ANG    -
 0.900      0.53  0.47   33   0.22
 1.800      1.03  0.29   77   0.17
 2.400      1.13  0.31  102   0.16
 3.000      1.32  0.31  136   0.12
 4.000      1.57  0.37 -168   0.10
 5.000      1.96  0.42 -129   0.28
 6.000      2.72  0.51 -111   0.37
!
! (c) 2009  Infineon Technologies AG, Munich