! Infineon Technologies  Discrete & RF Semiconductors
! BFP420
!
! VCE =  0.5 V,  IC =  6.0 mA
! Common Emitter S-Parameters:                            Nov 2009
# GHz  S  MA  R  50
!  f         S11            S21            S12            S22
! GHz     MAG   ANG      MAG   ANG      MAG   ANG      MAG   ANG
 0.010  0.8012   -2.8  18.178  179.3  0.0014  100.6  0.9667   -0.2
 0.020  0.7988   -3.5  17.825  178.0  0.0031   88.3  0.9728   -2.4
 0.050  0.7961   -8.8  17.873  174.1  0.0075   86.4  0.9710   -6.0
 0.100  0.7915  -17.7  17.810  168.2  0.0146   81.1  0.9614  -12.0
 0.150  0.7822  -26.2  17.501  162.3  0.0218   76.7  0.9449  -17.9
 0.200  0.7730  -34.4  17.084  156.8  0.0284   72.3  0.9223  -23.6
 0.250  0.7566  -42.5  16.522  151.2  0.0345   68.3  0.8964  -29.1
 0.300  0.7434  -50.4  16.006  146.2  0.0401   64.5  0.8659  -34.4
 0.350  0.7278  -57.8  15.402  141.5  0.0452   61.0  0.8342  -39.3
 0.400  0.7142  -64.8  14.779  136.9  0.0497   57.7  0.8013  -43.9
 0.450  0.6979  -71.6  14.150  132.6  0.0538   54.8  0.7685  -48.4
 0.500  0.6839  -78.0  13.524  128.6  0.0574   52.1  0.7357  -52.5
 0.600  0.6582  -89.9  12.343  121.3  0.0635   47.3  0.6742  -60.2
 0.700  0.6368 -100.4  11.255  115.1  0.0683   43.4  0.6178  -67.0
 0.800  0.6193 -109.7  10.277  109.5  0.0722   40.2  0.5675  -73.2
 0.900  0.6059 -118.3   9.428  104.5  0.0754   37.5  0.5236  -78.9
 1.000  0.5960 -126.1   8.684  100.1  0.0782   35.3  0.4852  -84.3
 1.100  0.5876 -133.0   8.026   96.1  0.0806   33.4  0.4517  -89.2
 1.200  0.5822 -139.3   7.441   92.4  0.0828   31.8  0.4219  -94.2
 1.300  0.5783 -145.1   6.931   89.0  0.0848   30.4  0.3964  -98.7
 1.400  0.5749 -150.6   6.475   85.8  0.0865   29.2  0.3740 -103.2
 1.500  0.5732 -155.5   6.081   82.9  0.0883   28.1  0.3539 -107.6
 1.600  0.5718 -160.1   5.719   80.0  0.0899   27.2  0.3368 -111.7
 1.700  0.5702 -164.6   5.399   77.3  0.0916   26.3  0.3214 -115.9
 1.800  0.5704 -168.6   5.103   74.8  0.0932   25.5  0.3079 -119.7
 1.900  0.5706 -172.7   4.837   72.3  0.0947   24.7  0.2963 -124.1
 2.000  0.5691 -176.3   4.602   69.9  0.0963   24.1  0.2853 -127.8
 2.200  0.5707  176.6   4.183   65.3  0.0993   22.7  0.2681 -135.9
 2.400  0.5742  170.1   3.828   61.0  0.1021   21.4  0.2556 -144.2
 2.600  0.5818  163.9   3.526   56.7  0.1049   20.2  0.2472 -152.3
 2.800  0.5872  158.4   3.261   52.8  0.1077   19.1  0.2420 -159.9
 3.000  0.5962  153.3   3.033   49.0  0.1105   18.0  0.2397 -167.3
 3.500  0.6220  141.2   2.569   39.7  0.1174   15.0  0.2473  175.4
 4.000  0.6463  130.8   2.215   31.0  0.1244   12.1  0.2653  161.5
 4.500  0.6639  122.5   1.928   22.9  0.1306    8.9  0.2858  150.8
 5.000  0.6724  116.0   1.703   15.8  0.1365    6.1  0.3012  142.5
 5.500  0.6839  109.7   1.529    9.0  0.1426    3.3  0.3191  135.1
 6.000  0.7010  103.4   1.392    2.2  0.1493    0.3  0.3406  128.0
 6.500  0.7206   97.6   1.278   -4.7  0.1565   -3.2  0.3604  121.3
 7.000  0.7350   92.0   1.183  -11.7  0.1645   -7.0  0.3765  114.4
 7.500  0.7449   86.1   1.100  -18.9  0.1719  -11.7  0.3981  107.8
 8.000  0.7534   79.4   1.006  -26.3  0.1756  -17.0  0.4227  101.0
 8.500  0.7652   72.4   0.912  -32.9  0.1745  -21.6  0.4508   93.6
 9.000  0.7939   66.2   0.832  -38.3  0.1737  -24.7  0.4945   87.5
 9.500  0.8416   61.7   0.774  -43.4  0.1747  -27.5  0.5498   83.2
10.000  0.8776   58.3   0.701  -48.5  0.1760  -30.6  0.5985   79.7
!
!  f       Fmin   Gammaopt  rn/50
! GHz       dB    MAG  ANG    -
 0.900      0.70  0.16   29   0.14
 1.800      1.08  0.06  113   0.12
 2.400      1.17  0.11  132   0.13
 3.000      1.26  0.17  176   0.11
 4.000      1.43  0.31 -139   0.13
 5.000      1.82  0.38 -115   0.24
 6.000      2.30  0.43  -99   0.37
!
! (c) 2009  Infineon Technologies AG, Munich