! Infineon Technologies  Discrete & RF Semiconductors
! BFP420
!
! VCE =  0.5 V,  IC =  15 mA
! Common Emitter S-Parameters:                            Nov 2009
# GHz  S  MA  R  50
!  f         S11            S21            S12            S22
! GHz     MAG   ANG      MAG   ANG      MAG   ANG      MAG   ANG
 0.010  0.5803   -3.8  33.810  179.2  0.0017  111.6  0.9091    0.0
 0.020  0.5925   -7.2  33.601  176.5  0.0030   88.9  0.9234   -4.0
 0.050  0.5873  -17.3  33.446  170.4  0.0070   83.0  0.9190  -10.7
 0.100  0.5834  -34.5  32.579  160.8  0.0135   76.2  0.8934  -21.3
 0.150  0.5788  -50.1  30.869  151.9  0.0194   69.9  0.8511  -31.4
 0.200  0.5716  -64.0  28.934  144.0  0.0243   64.4  0.8009  -40.4
 0.250  0.5637  -76.4  26.796  136.9  0.0285   59.8  0.7492  -48.5
 0.300  0.5576  -87.7  24.830  130.7  0.0319   56.0  0.6968  -56.0
 0.350  0.5523  -97.5  22.945  125.3  0.0348   52.9  0.6492  -62.5
 0.400  0.5478 -105.9  21.229  120.5  0.0371   50.5  0.6058  -68.5
 0.450  0.5449 -113.5  19.644  116.3  0.0392   48.5  0.5663  -74.0
 0.500  0.5424 -120.2  18.226  112.5  0.0410   46.9  0.5316  -79.0
 0.600  0.5382 -131.5  15.839  105.9  0.0441   44.6  0.4738  -88.1
 0.700  0.5376 -140.7  13.912  100.6  0.0468   43.2  0.4286  -96.1
 0.800  0.5375 -148.2  12.349   96.1  0.0493   42.3  0.3933 -103.3
 0.900  0.5382 -154.7  11.087   92.1  0.0517   41.8  0.3656 -110.0
 1.000  0.5407 -160.4  10.035   88.5  0.0541   41.4  0.3439 -116.4
 1.100  0.5424 -165.4   9.141   85.4  0.0565   41.2  0.3263 -122.1
 1.200  0.5456 -169.8   8.384   82.4  0.0589   41.0  0.3131 -127.8
 1.300  0.5487 -173.9   7.741   79.7  0.0613   40.8  0.3018 -132.9
 1.400  0.5510 -177.6   7.183   77.1  0.0638   40.6  0.2940 -138.0
 1.500  0.5526  179.0   6.702   74.7  0.0663   40.4  0.2869 -142.7
 1.600  0.5560  175.9   6.267   72.4  0.0687   40.2  0.2820 -147.0
 1.700  0.5580  172.6   5.893   70.2  0.0713   39.8  0.2782 -151.3
 1.800  0.5599  169.9   5.551   68.0  0.0739   39.5  0.2747 -155.2
 1.900  0.5633  167.0   5.239   66.0  0.0764   39.1  0.2739 -159.4
 2.000  0.5640  164.5   4.972   63.9  0.0791   38.7  0.2713 -162.8
 2.200  0.5690  159.2   4.496   59.9  0.0842   37.7  0.2714 -169.9
 2.400  0.5760  154.4   4.100   56.2  0.0892   36.4  0.2747 -176.8
 2.600  0.5850  149.7   3.765   52.5  0.0941   35.1  0.2799  176.8
 2.800  0.5921  145.6   3.474   49.1  0.0991   33.9  0.2859  171.2
 3.000  0.6022  141.6   3.222   45.7  0.1040   32.4  0.2928  165.9
 3.500  0.6293  131.9   2.718   37.3  0.1155   28.3  0.3179  153.9
 4.000  0.6553  123.2   2.333   29.4  0.1265   24.0  0.3448  144.2
 4.500  0.6715  116.3   2.028   21.9  0.1359   19.5  0.3683  136.4
 5.000  0.6797  110.8   1.792   15.4  0.1448   15.5  0.3847  129.9
 5.500  0.6915  105.1   1.608    9.1  0.1534   11.5  0.4033  124.1
 6.000  0.7082   99.4   1.464    2.6  0.1622    7.4  0.4258  118.1
 6.500  0.7274   94.2   1.342   -4.0  0.1709    2.7  0.4455  112.0
 7.000  0.7409   88.9   1.243  -10.7  0.1800   -2.2  0.4599  105.6
 7.500  0.7495   83.3   1.153  -17.6  0.1878   -7.8  0.4785   99.6
 8.000  0.7581   76.9   1.056  -24.7  0.1912  -13.8  0.5002   93.5
 8.500  0.7697   70.2   0.955  -31.1  0.1895  -18.9  0.5252   87.0
 9.000  0.7985   64.4   0.870  -36.2  0.1882  -22.5  0.5658   81.6
 9.500  0.8453   60.1   0.811  -41.0  0.1891  -25.7  0.6181   77.6
10.000  0.8801   56.9   0.736  -45.7  0.1897  -29.3  0.6618   74.0
!
!  f       Fmin   Gammaopt  rn/50
! GHz       dB    MAG  ANG    -
 0.900      1.06  0.09 -152   0.13
 1.800      1.36  0.18 -147   0.12
 2.400      1.49  0.17 -148   0.14
 3.000      1.53  0.25 -138   0.14
 4.000      1.67  0.38 -119   0.20
 5.000      2.14  0.44 -103   0.32
 6.000      2.48  0.50  -88   0.47
!
! (c) 2009  Infineon Technologies AG, Munich