! Infineon Technologies  Discrete & RF Semiconductors
! BFP420
!
! VCE =  0.5 V,  IC =  30 mA
! Common Emitter S-Parameters:                            Nov 2009
# GHz  S  MA  R  50
!  f         S11            S21            S12            S22
! GHz     MAG   ANG      MAG   ANG      MAG   ANG      MAG   ANG
 0.010  0.3704  -13.2  37.241  178.2  0.0024   96.1  0.6873   -0.4
 0.020  0.3838  -18.9  40.383  174.1  0.0036   87.8  0.7171   -7.9
 0.050  0.3972  -42.4  39.487  164.2  0.0083   79.1  0.7096  -21.2
 0.100  0.4463  -74.0  36.598  149.6  0.0150   68.0  0.6693  -40.4
 0.150  0.4893  -96.7  32.356  137.8  0.0199   60.4  0.6115  -57.1
 0.200  0.5218 -112.1  28.686  128.8  0.0235   55.0  0.5558  -70.6
 0.250  0.5427 -123.9  25.285  121.6  0.0262   51.4  0.5088  -82.0
 0.300  0.5599 -133.2  22.405  115.7  0.0283   49.0  0.4703  -91.6
 0.350  0.5705 -140.3  20.121  111.1  0.0301   47.6  0.4399 -100.0
 0.400  0.5787 -146.3  18.139  106.9  0.0316   46.6  0.4160 -107.2
 0.450  0.5850 -151.4  16.430  103.5  0.0331   46.2  0.3970 -113.7
 0.500  0.5901 -155.7  15.034  100.5  0.0346   45.9  0.3821 -119.6
 0.600  0.5979 -162.8  12.744   95.3  0.0373   45.9  0.3611 -129.5
 0.700  0.6041 -168.4  11.029   91.2  0.0401   46.3  0.3480 -137.6
 0.800  0.6084 -173.2   9.691   87.5  0.0430   46.7  0.3397 -144.6
 0.900  0.6125 -177.3   8.635   84.3  0.0458   47.1  0.3343 -150.5
 1.000  0.6170  179.0   7.778   81.4  0.0488   47.4  0.3322 -155.7
 1.100  0.6195  175.8   7.070   78.8  0.0518   47.6  0.3307 -160.4
 1.200  0.6232  172.8   6.470   76.2  0.0549   47.7  0.3322 -164.7
 1.300  0.6254  170.1   5.956   73.8  0.0580   47.6  0.3322 -168.5
 1.400  0.6289  167.5   5.514   71.6  0.0611   47.5  0.3340 -171.9
 1.500  0.6310  165.0   5.138   69.4  0.0643   47.2  0.3351 -175.2
 1.600  0.6331  162.8   4.805   67.4  0.0674   46.9  0.3376 -178.1
 1.700  0.6360  160.3   4.510   65.3  0.0706   46.4  0.3399  179.0
 1.800  0.6370  158.2   4.251   63.4  0.0738   46.0  0.3410  176.4
 1.900  0.6402  156.0   4.011   61.4  0.0769   45.3  0.3450  173.8
 2.000  0.6398  153.9   3.808   59.5  0.0801   44.7  0.3465  171.4
 2.200  0.6444  149.7   3.440   55.8  0.0863   43.2  0.3534  166.6
 2.400  0.6504  145.7   3.133   52.2  0.0922   41.5  0.3616  162.2
 2.600  0.6579  141.8   2.875   48.6  0.0980   39.8  0.3701  158.0
 2.800  0.6641  138.3   2.656   45.3  0.1038   38.1  0.3792  154.2
 3.000  0.6731  134.8   2.465   41.9  0.1094   36.3  0.3889  150.4
 3.500  0.6973  126.2   2.073   33.8  0.1224   31.3  0.4160  141.7
 4.000  0.7183  118.3   1.784   26.0  0.1343   26.2  0.4427  134.2
 4.500  0.7294  112.0   1.552   18.7  0.1444   21.1  0.4635  127.8
 5.000  0.7343  106.9   1.373   12.4  0.1539   16.7  0.4760  122.4
 5.500  0.7422  101.6   1.238    6.3  0.1631   12.3  0.4927  117.4
 6.000  0.7568   96.2   1.132    0.1  0.1726    7.7  0.5144  112.0
 6.500  0.7732   91.1   1.038   -6.6  0.1814    2.7  0.5316  106.4
 7.000  0.7844   86.0   0.966  -13.1  0.1906   -2.6  0.5443  100.4
 7.500  0.7902   80.5   0.900  -19.9  0.1982   -8.5  0.5603   94.7
 8.000  0.7947   74.3   0.824  -26.8  0.2008  -14.8  0.5771   88.8
 8.500  0.8024   67.9   0.748  -32.8  0.1980  -19.9  0.5961   82.8
 9.000  0.8274   62.4   0.684  -37.6  0.1961  -23.4  0.6322   77.9
 9.500  0.8704   58.1   0.641  -42.1  0.1969  -26.7  0.6814   74.2
10.000  0.9019   55.1   0.582  -46.4  0.1970  -30.4  0.7215   70.6
!
!  f       Fmin   Gammaopt  rn/50
! GHz       dB    MAG  ANG    -
 0.900      1.51  0.26 -155   0.13
 1.800      1.78  0.33 -142   0.14
 2.400      1.96  0.30 -136   0.18
 3.000      1.98  0.38 -127   0.20
 4.000      2.11  0.47 -111   0.31
 5.000      2.57  0.53  -94   0.51
 6.000      3.00  0.57  -82   0.74
!
! (c) 2009  Infineon Technologies AG, Munich