! Infineon Technologies  Discrete & RF Semiconductors
! BFP420
!
! VCE =  0.5 V,  IC =  2.5 mA
! Common Emitter S-Parameters:                            Nov 2009
# GHz  S  MA  R  50
!  f         S11            S21            S12            S22
! GHz     MAG   ANG      MAG   ANG      MAG   ANG      MAG   ANG
 0.010  0.9120   -1.3   8.590  179.3  0.0014   91.6  0.9873   -0.2
 0.020  0.9063   -2.1   8.383  178.9  0.0032   86.8  0.9890   -1.4
 0.050  0.9054   -5.1   8.423  176.1  0.0076   88.0  0.9883   -3.6
 0.100  0.9050  -10.4   8.462  172.3  0.0153   84.0  0.9846   -7.2
 0.150  0.9001  -15.4   8.427  168.4  0.0230   80.9  0.9782  -10.7
 0.200  0.8966  -20.5   8.358  164.5  0.0303   77.9  0.9687  -14.3
 0.250  0.8886  -25.6   8.241  160.5  0.0376   75.0  0.9577  -17.7
 0.300  0.8813  -30.7   8.156  156.9  0.0446   72.0  0.9436  -21.1
 0.350  0.8722  -35.6   8.033  153.2  0.0514   69.1  0.9283  -24.5
 0.400  0.8636  -40.4   7.886  149.7  0.0577   66.2  0.9104  -27.7
 0.450  0.8529  -45.3   7.739  146.2  0.0639   63.5  0.8925  -30.8
 0.500  0.8410  -49.9   7.571  142.8  0.0696   60.9  0.8723  -33.9
 0.600  0.8190  -59.1   7.232  136.2  0.0801   55.8  0.8319  -39.7
 0.700  0.7957  -67.9   6.878  130.2  0.0893   51.2  0.7889  -45.2
 0.800  0.7740  -76.0   6.510  124.5  0.0972   47.0  0.7470  -50.2
 0.900  0.7538  -84.0   6.164  119.3  0.1039   43.1  0.7061  -54.9
 1.000  0.7353  -91.5   5.838  114.4  0.1098   39.5  0.6667  -59.4
 1.100  0.7185  -98.6   5.527  109.9  0.1148   36.3  0.6307  -63.4
 1.200  0.7036 -105.5   5.232  105.6  0.1191   33.2  0.5953  -67.4
 1.300  0.6911 -111.9   4.963  101.6  0.1229   30.5  0.5640  -71.1
 1.400  0.6794 -118.1   4.710   97.7  0.1260   27.9  0.5340  -74.7
 1.500  0.6695 -123.9   4.486   94.3  0.1288   25.5  0.5059  -78.1
 1.600  0.6614 -129.5   4.268   90.7  0.1310   23.3  0.4809  -81.2
 1.700  0.6523 -134.8   4.074   87.5  0.1332   21.2  0.4570  -84.4
 1.800  0.6467 -139.7   3.884   84.3  0.1349   19.2  0.4356  -87.3
 1.900  0.6412 -144.9   3.715   81.3  0.1364   17.3  0.4146  -90.5
 2.000  0.6352 -149.3   3.557   78.5  0.1377   15.7  0.3962  -93.2
 2.200  0.6273 -158.4   3.276   72.9  0.1399   12.4  0.3614  -99.2
 2.400  0.6225 -166.9   3.027   67.7  0.1412    9.4  0.3307 -105.3
 2.600  0.6228 -175.0   2.814   62.6  0.1419    6.6  0.3044 -111.6
 2.800  0.6225  177.8   2.619   58.0  0.1422    4.3  0.2822 -117.7
 3.000  0.6265  171.2   2.451   53.5  0.1422    2.1  0.2632 -124.1
 3.500  0.6429  155.7   2.100   42.7  0.1415   -2.8  0.2314 -141.7
 4.000  0.6638  142.7   1.826   32.7  0.1406   -6.5  0.2196 -159.1
 4.500  0.6787  132.3   1.597   23.3  0.1391   -9.7  0.2227 -174.3
 5.000  0.6864  124.3   1.412   15.3  0.1375  -11.9  0.2302  173.6
 5.500  0.6965  116.7   1.269    7.7  0.1366  -13.6  0.2421  162.9
 6.000  0.7134  109.4   1.157    0.3  0.1371  -14.9  0.2588  153.0
 6.500  0.7327  102.9   1.064   -7.2  0.1396  -16.5  0.2772  144.1
 7.000  0.7474   96.7   0.986  -14.6  0.1439  -18.3  0.2945  135.5
 7.500  0.7576   90.2   0.917  -22.1  0.1486  -21.0  0.3181  127.1
 8.000  0.7663   82.9   0.840  -29.8  0.1512  -24.7  0.3451  118.3
 8.500  0.7750   75.3   0.762  -36.7  0.1501  -27.9  0.3751  108.9
 9.000  0.8022   68.8   0.695  -42.6  0.1493  -29.7  0.4213  100.8
 9.500  0.8503   63.9   0.645  -47.9  0.1503  -31.2  0.4825   95.4
10.000  0.8859   60.3   0.581  -53.4  0.1527  -33.2  0.5421   91.3
!
!  f       Fmin   Gammaopt  rn/50
! GHz       dB    MAG  ANG    -
 0.900      0.55  0.41   33   0.20
 1.800      1.02  0.24   78   0.16
 2.400      1.11  0.26  103   0.15
 3.000      1.28  0.27  140   0.11
 4.000      1.50  0.34 -163   0.10
 5.000      1.85  0.40 -130   0.26
 6.000      2.56  0.50 -109   0.35
!
! (c) 2009  Infineon Technologies AG, Munich