! Infineon Technologies  Discrete & RF Semiconductors
! BFP420
!
! VCE =  0.5 V,  IC =  20 mA
! Common Emitter S-Parameters:                            Nov 2009
# GHz  S  MA  R  50
!  f         S11            S21            S12            S22
! GHz     MAG   ANG      MAG   ANG      MAG   ANG      MAG   ANG
 0.010  0.5117   -7.7  37.313  178.9  0.0016  101.5  0.8660    0.1
 0.020  0.5111   -9.9  38.510  175.8  0.0029   87.9  0.8845   -4.8
 0.050  0.5062  -23.2  38.201  168.6  0.0072   81.8  0.8797  -13.1
 0.100  0.5128  -44.6  36.741  157.5  0.0134   74.0  0.8459  -25.9
 0.150  0.5147  -63.8  34.085  147.4  0.0188   67.1  0.7932  -37.8
 0.200  0.5194  -79.3  31.371  139.0  0.0232   61.5  0.7346  -47.9
 0.250  0.5202  -92.8  28.551  131.6  0.0267   57.2  0.6772  -57.1
 0.300  0.5237 -104.1  26.007  125.3  0.0295   53.8  0.6230  -65.1
 0.350  0.5269 -113.5  23.734  120.1  0.0318   51.2  0.5760  -72.2
 0.400  0.5287 -121.4  21.742  115.5  0.0338   49.3  0.5349  -78.5
 0.450  0.5311 -128.3  19.934  111.5  0.0356   47.9  0.4989  -84.3
 0.500  0.5331 -134.3  18.367  107.9  0.0371   46.9  0.4684  -89.7
 0.600  0.5361 -144.2  15.798  101.9  0.0399   45.5  0.4195  -99.3
 0.700  0.5404 -152.2  13.768   97.0  0.0426   44.9  0.3835 -107.6
 0.800  0.5433 -158.6  12.167   92.8  0.0451   44.6  0.3565 -115.1
 0.900  0.5474 -164.1  10.887   89.1  0.0477   44.6  0.3364 -122.0
 1.000  0.5510 -169.0   9.822   85.8  0.0503   44.6  0.3216 -128.4
 1.100  0.5539 -173.3   8.930   82.8  0.0529   44.6  0.3098 -134.1
 1.200  0.5576 -177.1   8.179   80.0  0.0555   44.6  0.3020 -139.7
 1.300  0.5604  179.3   7.544   77.5  0.0583   44.4  0.2954 -144.6
 1.400  0.5637  176.2   6.993   75.1  0.0610   44.3  0.2917 -149.4
 1.500  0.5658  173.2   6.516   72.8  0.0638   44.1  0.2881 -153.8
 1.600  0.5694  170.5   6.093   70.6  0.0665   43.9  0.2862 -157.7
 1.700  0.5719  167.5   5.724   68.5  0.0694   43.6  0.2852 -161.7
 1.800  0.5737  165.1   5.390   66.4  0.0722   43.2  0.2840 -165.2
 1.900  0.5771  162.5   5.083   64.4  0.0750   42.7  0.2854 -168.9
 2.000  0.5778  160.2   4.823   62.4  0.0779   42.2  0.2844 -172.0
 2.200  0.5824  155.4   4.360   58.6  0.0834   41.0  0.2880 -178.4
 2.400  0.5894  150.9   3.975   55.0  0.0889   39.6  0.2940  175.6
 2.600  0.5986  146.5   3.647   51.3  0.0942   38.1  0.3012  170.0
 2.800  0.6058  142.7   3.365   48.0  0.0996   36.7  0.3087  165.0
 3.000  0.6157  139.0   3.120   44.6  0.1048   35.1  0.3169  160.4
 3.500  0.6431  129.8   2.628   36.4  0.1171   30.5  0.3442  149.6
 4.000  0.6674  121.5   2.256   28.6  0.1285   25.8  0.3716  140.8
 4.500  0.6831  114.8   1.962   21.2  0.1384   21.0  0.3950  133.5
 5.000  0.6907  109.4   1.732   14.8  0.1477   16.8  0.4109  127.4
 5.500  0.7016  104.0   1.556    8.6  0.1566   12.6  0.4292  121.8
 6.000  0.7191   98.4   1.418    2.2  0.1657    8.2  0.4516  116.1
 6.500  0.7366   93.2   1.299   -4.4  0.1746    3.3  0.4711  110.1
 7.000  0.7496   88.0   1.203  -11.1  0.1837   -1.7  0.4848  103.9
 7.500  0.7579   82.5   1.117  -18.0  0.1915   -7.4  0.5026   98.0
 8.000  0.7654   76.2   1.023  -24.9  0.1948  -13.6  0.5232   92.0
 8.500  0.7764   69.6   0.926  -31.2  0.1928  -18.8  0.5468   85.6
 9.000  0.8049   63.9   0.843  -36.3  0.1913  -22.3  0.5862   80.4
 9.500  0.8512   59.5   0.787  -41.0  0.1922  -25.6  0.6378   76.5
10.000  0.8845   56.4   0.713  -45.6  0.1926  -29.3  0.6806   72.9
!
!  f       Fmin   Gammaopt  rn/50
! GHz       dB    MAG  ANG    -
 0.900      1.23  0.16 -154   0.13
 1.800      1.51  0.24 -144   0.13
 2.400      1.66  0.22 -141   0.15
 3.000      1.69  0.30 -132   0.16
 4.000      1.82  0.42 -115   0.23
 5.000      2.28  0.48  -96   0.37
 6.000      2.65  0.52  -86   0.56
!
! (c) 2009  Infineon Technologies AG, Munich