! Infineon Technologies  Discrete & RF Semiconductors
! BFP420
!
! VCE =  0.5 V,  IC =  5.0 mA
! Common Emitter S-Parameters:                            Nov 2009
# GHz  S  MA  R  50
!  f         S11            S21            S12            S22
! GHz     MAG   ANG      MAG   ANG      MAG   ANG      MAG   ANG
 0.010  0.8353   -2.0  15.697  179.2  0.0012   94.3  0.9735   -0.2
 0.020  0.8276   -3.2  15.369  178.2  0.0031   87.0  0.9776   -2.1
 0.050  0.8260   -7.7  15.417  174.6  0.0075   86.1  0.9758   -5.4
 0.100  0.8210  -15.7  15.403  169.3  0.0149   81.9  0.9681  -10.7
 0.150  0.8141  -23.2  15.194  163.9  0.0221   77.8  0.9548  -16.1
 0.200  0.8062  -30.7  14.911  158.8  0.0290   73.7  0.9362  -21.2
 0.250  0.7915  -38.1  14.497  153.6  0.0354   69.9  0.9145  -26.2
 0.300  0.7787  -45.2  14.126  148.9  0.0414   66.3  0.8884  -31.0
 0.350  0.7649  -52.1  13.682  144.4  0.0469   62.8  0.8605  -35.6
 0.400  0.7510  -58.6  13.216  140.0  0.0519   59.6  0.8313  -39.9
 0.450  0.7355  -64.9  12.728  135.8  0.0565   56.6  0.8016  -44.1
 0.500  0.7208  -71.0  12.239  131.9  0.0606   53.9  0.7716  -48.0
 0.600  0.6939  -82.4  11.293  124.7  0.0676   48.9  0.7132  -55.4
 0.700  0.6693  -92.8  10.392  118.3  0.0732   44.7  0.6582  -61.9
 0.800  0.6497 -102.0   9.563  112.7  0.0778   41.2  0.6082  -67.9
 0.900  0.6328 -110.6   8.829  107.6  0.0815   38.1  0.5632  -73.4
 1.000  0.6205 -118.5   8.173  103.0  0.0847   35.5  0.5229  -78.6
 1.100  0.6097 -125.6   7.583   98.9  0.0874   33.3  0.4875  -83.3
 1.200  0.6018 -132.3   7.059   94.9  0.0898   31.2  0.4554  -88.1
 1.300  0.5956 -138.3   6.597   91.4  0.0919   29.5  0.4276  -92.4
 1.400  0.5911 -144.0   6.180   88.1  0.0938   28.0  0.4027  -96.7
 1.500  0.5870 -149.2   5.814   85.0  0.0956   26.6  0.3800 -100.8
 1.600  0.5849 -154.0   5.478   82.0  0.0971   25.5  0.3607 -104.7
 1.700  0.5815 -158.8   5.181   79.2  0.0987   24.3  0.3429 -108.7
 1.800  0.5808 -163.0   4.903   76.5  0.1001   23.3  0.3273 -112.4
 1.900  0.5794 -167.4   4.653   73.9  0.1015   22.3  0.3133 -116.5
 2.000  0.5780 -171.1   4.432   71.5  0.1029   21.5  0.3003 -120.0
 2.200  0.5781 -178.8   4.037   66.7  0.1054   19.8  0.2787 -127.8
 2.400  0.5802  174.2   3.699   62.2  0.1079   18.2  0.2621 -135.9
 2.600  0.5872  167.7   3.411   57.8  0.1101   16.8  0.2498 -144.0
 2.800  0.5919  161.9   3.157   53.8  0.1122   15.6  0.2408 -151.7
 3.000  0.5991  156.4   2.940   49.8  0.1146   14.4  0.2353 -159.1
 3.500  0.6237  143.7   2.494   40.3  0.1199   11.4  0.2362 -177.7
 4.000  0.6483  132.8   2.152   31.4  0.1256    8.6  0.2500  167.4
 4.500  0.6650  124.2   1.875   23.0  0.1305    5.6  0.2686  155.8
 5.000  0.6735  117.5   1.657   15.8  0.1355    3.1  0.2835  146.8
 5.500  0.6849  110.9   1.487    8.9  0.1405    0.6  0.3007  139.0
 6.000  0.7024  104.4   1.355    2.0  0.1464   -2.0  0.3217  131.5
 6.500  0.7216   98.6   1.243   -5.1  0.1531   -5.2  0.3416  124.4
 7.000  0.7361   92.8   1.151  -12.2  0.1605   -8.7  0.3579  117.3
 7.500  0.7458   86.8   1.070  -19.4  0.1676  -13.1  0.3799  110.6
 8.000  0.7545   80.0   0.981  -26.8  0.1713  -18.2  0.4054  103.5
 8.500  0.7658   72.9   0.888  -33.5  0.1703  -22.6  0.4341   95.8
 9.000  0.7948   66.7   0.810  -39.1  0.1695  -25.5  0.4783   89.4
 9.500  0.8425   62.1   0.754  -44.2  0.1705  -28.1  0.5345   85.1
10.000  0.8776   58.7   0.682  -49.3  0.1720  -31.1  0.5849   81.5
!
!  f       Fmin   Gammaopt  rn/50
! GHz       dB    MAG  ANG    -
 0.900      0.66  0.21   31   0.15
 1.800      1.05  0.09   93   0.13
 2.400      1.14  0.14  119   0.13
 3.000      1.24  0.17  165   0.11
 4.000      1.41  0.31 -145   0.12
 5.000      1.85  0.38 -119   0.21
 6.000      2.30  0.45 -101   0.36
!
! (c) 2009  Infineon Technologies AG, Munich