! Infineon Technologies  Discrete & RF Semiconductors
! BFP420
!
! VCE =  0.5 V,  IC =  8.0 mA
! Common Emitter S-Parameters:                            Nov 2009
# GHz  S  MA  R  50
!  f         S11            S21            S12            S22
! GHz     MAG   ANG      MAG   ANG      MAG   ANG      MAG   ANG
 0.010  0.7464   -2.4  22.694  179.2  0.0017  110.9  0.9541   -0.2
 0.020  0.7453   -4.5  22.244  177.6  0.0031   89.4  0.9627   -2.8
 0.050  0.7454  -10.5  22.252  173.1  0.0073   84.9  0.9603   -7.2
 0.100  0.7381  -21.2  22.087  166.3  0.0144   79.6  0.9471  -14.4
 0.150  0.7252  -31.7  21.517  159.5  0.0212   74.5  0.9245  -21.5
 0.200  0.7146  -41.6  20.810  153.2  0.0273   69.9  0.8945  -28.1
 0.250  0.6967  -51.0  19.908  147.1  0.0329   65.6  0.8608  -34.4
 0.300  0.6835  -60.0  19.051  141.6  0.0378   61.6  0.8228  -40.3
 0.350  0.6685  -68.4  18.126  136.6  0.0421   58.1  0.7846  -45.8
 0.400  0.6546  -76.1  17.203  131.8  0.0459   54.9  0.7465  -50.9
 0.450  0.6400  -83.5  16.294  127.4  0.0492   52.1  0.7093  -55.7
 0.500  0.6281  -90.3  15.418  123.4  0.0521   49.6  0.6738  -60.2
 0.600  0.6073 -102.6  13.835  116.1  0.0569   45.4  0.6094  -68.3
 0.700  0.5911 -113.2  12.442  110.1  0.0607   42.2  0.5534  -75.6
 0.800  0.5792 -122.3  11.237  104.8  0.0638   39.6  0.5056  -82.1
 0.900  0.5717 -130.5  10.222  100.1  0.0665   37.7  0.4652  -88.1
 1.000  0.5658 -137.8   9.347   95.9  0.0688   36.1  0.4306  -93.8
 1.100  0.5618 -144.2   8.585   92.2  0.0710   34.8  0.4014  -99.1
 1.200  0.5597 -150.1   7.925   88.7  0.0731   33.7  0.3763 -104.4
 1.300  0.5586 -155.4   7.356   85.6  0.0750   32.8  0.3549 -109.2
 1.400  0.5579 -160.2   6.851   82.6  0.0769   32.0  0.3370 -114.0
 1.500  0.5576 -164.7   6.414   79.9  0.0788   31.4  0.3210 -118.6
 1.600  0.5583 -168.8   6.016   77.2  0.0806   30.8  0.3080 -123.0
 1.700  0.5589 -173.0   5.671   74.7  0.0825   30.2  0.2965 -127.4
 1.800  0.5595 -176.5   5.352   72.3  0.0844   29.7  0.2864 -131.5
 1.900  0.5611  179.7   5.063   69.9  0.0863   29.2  0.2787 -136.1
 2.000  0.5607  176.6   4.811   67.7  0.0882   28.7  0.2707 -139.9
 2.200  0.5648  170.0   4.364   63.3  0.0919   27.7  0.2601 -148.1
 2.400  0.5700  164.2   3.988   59.2  0.0955   26.5  0.2538 -156.3
 2.600  0.5780  158.6   3.666   55.2  0.0991   25.5  0.2510 -164.0
 2.800  0.5846  153.6   3.389   51.5  0.1027   24.5  0.2507 -171.3
 3.000  0.5938  148.9   3.148   47.8  0.1064   23.3  0.2525 -178.1
 3.500  0.6211  137.7   2.660   38.9  0.1152   20.2  0.2680  166.5
 4.000  0.6466  128.0   2.290   30.5  0.1240   16.8  0.2906  154.3
 4.500  0.6636  120.2   1.992   22.7  0.1316   13.2  0.3127  144.8
 5.000  0.6718  114.1   1.760   15.8  0.1389   10.0  0.3290  137.3
 5.500  0.6834  108.0   1.579    9.2  0.1461    6.8  0.3474  130.5
 6.000  0.7016  101.9   1.438    2.6  0.1538    3.3  0.3694  123.9
 6.500  0.7206   96.4   1.319   -4.3  0.1617   -0.7  0.3892  117.4
 7.000  0.7342   90.9   1.221  -11.2  0.1702   -4.9  0.4048  110.7
 7.500  0.7436   85.1   1.134  -18.3  0.1778  -10.0  0.4254  104.4
 8.000  0.7524   78.5   1.038  -25.5  0.1815  -15.6  0.4490   97.9
 8.500  0.7648   71.6   0.940  -32.0  0.1802  -20.4  0.4762   90.9
 9.000  0.7936   65.6   0.858  -37.4  0.1792  -23.7  0.5188   85.0
 9.500  0.8418   61.1   0.799  -42.3  0.1803  -26.7  0.5730   80.9
10.000  0.8766   57.8   0.723  -47.3  0.1813  -30.1  0.6197   77.4
!
!  f       Fmin   Gammaopt  rn/50
! GHz       dB    MAG  ANG    -
 0.900      0.79  0.08   30   0.13
 1.800      1.14  0.06  171   0.12
 2.400      1.24  0.10  160   0.13
 3.000      1.32  0.17 -165   0.12
 4.000      1.46  0.32 -132   0.14
 5.000      1.85  0.39 -110   0.25
 6.000      2.30  0.46  -95   0.37
!
! (c) 2009  Infineon Technologies AG, Munich