! Infineon Technologies  Discrete & RF Semiconductors
! BFP420
!
! VCE =  1.5 V,  IC =  3.0 mA
! Common Emitter S-Parameters:                            Nov 2009
# GHz  S  MA  R  50
!  f         S11            S21            S12            S22
! GHz     MAG   ANG      MAG   ANG      MAG   ANG      MAG   ANG
 0.010  0.8984   -1.8  10.175  179.3  0.0007   95.9  0.9902    0.1
 0.020  0.8941   -1.9   9.932  178.9  0.0022   95.0  0.9916   -1.1
 0.050  0.8945   -4.6   9.974  176.3  0.0054   87.2  0.9915   -2.9
 0.100  0.8906   -9.7  10.017  172.8  0.0109   84.8  0.9889   -5.9
 0.150  0.8880  -14.3   9.980  169.1  0.0162   82.4  0.9838   -8.8
 0.200  0.8846  -19.1   9.911  165.6  0.0215   79.5  0.9764  -11.7
 0.250  0.8763  -23.8   9.792  161.8  0.0267   76.9  0.9674  -14.6
 0.300  0.8700  -28.6   9.710  158.4  0.0317   74.3  0.9562  -17.5
 0.350  0.8614  -33.3   9.585  155.0  0.0366   71.7  0.9436  -20.2
 0.400  0.8535  -37.8   9.432  151.6  0.0412   69.1  0.9290  -22.9
 0.450  0.8431  -42.3   9.283  148.3  0.0458   66.7  0.9140  -25.5
 0.500  0.8330  -46.8   9.103  145.0  0.0501   64.4  0.8972  -28.1
 0.600  0.8121  -55.5   8.750  138.7  0.0580   59.8  0.8622  -33.1
 0.700  0.7887  -63.9   8.364  132.8  0.0650   55.5  0.8246  -37.7
 0.800  0.7666  -71.8   7.955  127.3  0.0713   51.7  0.7871  -42.0
 0.900  0.7454  -79.6   7.567  122.1  0.0767   48.0  0.7495  -46.0
 1.000  0.7262  -87.0   7.195  117.3  0.0816   44.7  0.7128  -49.8
 1.100  0.7083  -93.9   6.829  112.8  0.0858   41.8  0.6784  -53.2
 1.200  0.6920 -100.8   6.483  108.5  0.0895   38.9  0.6440  -56.6
 1.300  0.6773 -107.1   6.160  104.5  0.0927   36.3  0.6126  -59.7
 1.400  0.6639 -113.4   5.861  100.7  0.0955   33.9  0.5827  -62.7
 1.500  0.6525 -119.1   5.585   97.2  0.0980   31.7  0.5543  -65.4
 1.600  0.6425 -124.7   5.320   93.7  0.1001   29.7  0.5282  -68.0
 1.700  0.6319 -130.2   5.082   90.5  0.1021   27.7  0.5033  -70.6
 1.800  0.6242 -135.2   4.845   87.3  0.1037   26.0  0.4805  -72.9
 1.900  0.6177 -140.3   4.637   84.3  0.1053   24.2  0.4579  -75.4
 2.000  0.6102 -144.9   4.440   81.5  0.1067   22.7  0.4382  -77.5
 2.200  0.6000 -154.2   4.091   76.0  0.1090   19.8  0.3998  -82.0
 2.400  0.5923 -162.8   3.781   70.9  0.1108   17.2  0.3647  -86.6
 2.600  0.5914 -171.3   3.511   65.9  0.1121   14.8  0.3333  -91.1
 2.800  0.5906 -178.9   3.267   61.4  0.1131   12.8  0.3058  -95.6
 3.000  0.5932  174.3   3.056   57.0  0.1140   10.9  0.2813 -100.2
 3.500  0.6084  158.3   2.618   46.5  0.1155    6.9  0.2309 -113.8
 4.000  0.6292  144.9   2.275   36.8  0.1172    3.8  0.1987 -129.4
 4.500  0.6467  134.2   1.989   27.7  0.1186    1.0  0.1836 -145.7
 5.000  0.6557  126.0   1.757   19.8  0.1200   -1.0  0.1779 -160.2
 5.500  0.6674  118.2   1.576   12.4  0.1216   -2.8  0.1797 -174.3
 6.000  0.6846  110.8   1.434    5.1  0.1243   -4.1  0.1875  172.1
 6.500  0.7052  104.1   1.319   -2.3  0.1288   -5.9  0.1991  160.3
 7.000  0.7206   97.9   1.222   -9.7  0.1347   -8.0  0.2108  149.5
 7.500  0.7316   91.3   1.133  -17.1  0.1411  -11.0  0.2301  139.0
 8.000  0.7419   84.0   1.040  -24.8  0.1454  -15.1  0.2552  128.3
 8.500  0.7536   76.3   0.944  -31.8  0.1462  -18.7  0.2854  116.7
 9.000  0.7832   69.7   0.864  -37.9  0.1465  -21.2  0.3328  106.7
 9.500  0.8330   64.7   0.801  -43.5  0.1484  -23.2  0.3951  100.3
10.000  0.8717   61.1   0.724  -49.3  0.1516  -25.5  0.4562   96.1
!
!  f       Fmin   Gammaopt  rn/50
! GHz       dB    MAG  ANG    -
 0.900      0.57  0.35   33   0.18
 1.800      1.02  0.20   79   0.14
 2.400      1.10  0.23  104   0.14
 3.000      1.25  0.24  144   0.11
 4.000      1.46  0.33 -159   0.10
 5.000      1.90  0.39 -128   0.22
 6.000      2.46  0.48 -107   0.35
!
! (c) 2009  Infineon Technologies AG, Munich