! Infineon Technologies  Discrete & RF Semiconductors
! BFP420
!
! VCE =  1.5 V,  IC =  6.0 mA
! Common Emitter S-Parameters:                            Nov 2009
# GHz  S  MA  R  50
!  f         S11            S21            S12            S22
! GHz     MAG   ANG      MAG   ANG      MAG   ANG      MAG   ANG
 0.010  0.8098   -2.3  18.392  179.3  0.0011   82.8  0.9792    0.3
 0.020  0.8046   -2.9  18.002  178.2  0.0020   87.7  0.9844   -1.6
 0.050  0.8011   -7.1  18.047  174.9  0.0052   85.7  0.9837   -4.2
 0.100  0.7988  -14.1  18.023  170.0  0.0103   83.0  0.9775   -8.6
 0.150  0.7913  -21.0  17.810  165.0  0.0153   79.6  0.9664  -12.9
 0.200  0.7837  -27.8  17.523  160.3  0.0200   76.1  0.9509  -17.0
 0.250  0.7721  -34.4  17.100  155.4  0.0246   72.8  0.9326  -21.0
 0.300  0.7589  -41.0  16.730  150.9  0.0289   69.6  0.9108  -24.9
 0.350  0.7463  -47.4  16.271  146.7  0.0329   66.6  0.8869  -28.6
 0.400  0.7325  -53.5  15.782  142.5  0.0367   63.8  0.8614  -32.2
 0.450  0.7174  -59.4  15.266  138.5  0.0401   61.1  0.8352  -35.5
 0.500  0.7027  -65.2  14.746  134.7  0.0433   58.6  0.8079  -38.8
 0.600  0.6748  -76.1  13.713  127.6  0.0488   54.1  0.7543  -44.7
 0.700  0.6482  -86.1  12.714  121.3  0.0534   50.3  0.7023  -50.1
 0.800  0.6260  -95.2  11.761  115.6  0.0572   47.2  0.6540  -54.8
 0.900  0.6069 -103.7  10.910  110.5  0.0605   44.4  0.6093  -59.2
 1.000  0.5920 -111.7  10.138  105.8  0.0634   42.0  0.5681  -63.2
 1.100  0.5782 -118.9   9.434  101.7  0.0659   40.1  0.5314  -66.9
 1.200  0.5674 -125.7   8.802   97.7  0.0682   38.3  0.4972  -70.5
 1.300  0.5590 -131.9   8.237   94.1  0.0703   36.7  0.4670  -73.7
 1.400  0.5526 -137.9   7.727   90.7  0.0721   35.4  0.4391  -76.9
 1.500  0.5463 -143.2   7.274   87.6  0.0740   34.2  0.4135  -79.9
 1.600  0.5433 -148.3   6.858   84.6  0.0756   33.2  0.3908  -82.8
 1.700  0.5384 -153.3   6.489   81.8  0.0773   32.2  0.3695  -85.6
 1.800  0.5350 -157.7   6.140   79.1  0.0789   31.4  0.3503  -88.2
 1.900  0.5342 -162.3   5.830   76.5  0.0804   30.5  0.3319  -91.3
 2.000  0.5312 -166.2   5.548   74.1  0.0820   29.8  0.3157  -93.7
 2.200  0.5289 -174.3   5.056   69.3  0.0849   28.4  0.2854  -99.5
 2.400  0.5303  178.4   4.632   64.9  0.0878   27.0  0.2590 -105.5
 2.600  0.5355  171.4   4.269   60.6  0.0905   25.7  0.2362 -112.0
 2.800  0.5403  165.4   3.951   56.7  0.0932   24.7  0.2171 -118.5
 3.000  0.5477  159.7   3.678   52.8  0.0960   23.6  0.2011 -125.3
 3.500  0.5735  146.5   3.121   43.6  0.1027   20.7  0.1757 -145.7
 4.000  0.5999  135.2   2.695   34.9  0.1098   17.8  0.1702 -165.8
 4.500  0.6195  126.3   2.348   26.7  0.1162   14.7  0.1789  177.3
 5.000  0.6307  119.4   2.072   19.6  0.1224   11.9  0.1898  164.2
 5.500  0.6438  112.6   1.859   12.8  0.1284    9.1  0.2044  153.0
 6.000  0.6629  106.1   1.691    6.0  0.1350    6.2  0.2228  142.9
 6.500  0.6839  100.2   1.551   -1.0  0.1423    2.8  0.2414  134.1
 7.000  0.6995   94.4   1.435   -8.1  0.1504   -0.9  0.2568  125.7
 7.500  0.7106   88.3   1.331  -15.2  0.1583   -5.4  0.2787  117.9
 8.000  0.7224   81.5   1.220  -22.6  0.1631  -10.6  0.3060  109.8
 8.500  0.7373   74.2   1.107  -29.4  0.1636  -15.3  0.3390  101.0
 9.000  0.7695   68.0   1.013  -35.1  0.1637  -18.6  0.3870   93.6
 9.500  0.8205   63.2   0.941  -40.5  0.1653  -21.5  0.4460   88.8
10.000  0.8595   59.8   0.852  -46.0  0.1676  -24.6  0.4998   85.3
!
!  f       Fmin   Gammaopt  rn/50
! GHz       dB    MAG  ANG    -
 0.900      0.70  0.16   29   0.14
 1.800      1.08  0.06  113   0.12
 2.400      1.17  0.11  132   0.13
 3.000      1.26  0.17  176   0.11
 4.000      1.43  0.31 -139   0.13
 5.000      1.82  0.38 -115   0.24
 6.000      2.30  0.43  -99   0.37
!
! (c) 2009  Infineon Technologies AG, Munich