! Infineon Technologies  Discrete & RF Semiconductors
! BFP420
!
! VCE =  1.0 V,  IC =  8.0 mA
! Common Emitter S-Parameters:                            Nov 2009
# GHz  S  MA  R  50
!  f         S11            S21            S12            S22
! GHz     MAG   ANG      MAG   ANG      MAG   ANG      MAG   ANG
 0.010  0.7484   -2.3  22.942  179.3  0.0013  102.0  0.9676    0.3
 0.020  0.7504   -3.6  22.451  177.8  0.0025   89.5  0.9749   -2.1
 0.050  0.7486   -8.6  22.483  173.9  0.0056   86.1  0.9732   -5.6
 0.100  0.7422  -17.8  22.370  167.9  0.0111   81.3  0.9636  -11.3
 0.150  0.7329  -26.7  21.948  161.9  0.0164   77.3  0.9464  -16.8
 0.200  0.7227  -35.1  21.391  156.3  0.0214   73.2  0.9231  -22.1
 0.250  0.7058  -43.4  20.643  150.7  0.0260   69.5  0.8960  -27.2
 0.300  0.6931  -51.3  19.963  145.5  0.0302   65.9  0.8649  -32.0
 0.350  0.6782  -58.9  19.167  140.8  0.0340   62.6  0.8322  -36.6
 0.400  0.6628  -66.0  18.358  136.2  0.0374   59.7  0.7985  -40.8
 0.450  0.6467  -72.8  17.546  131.9  0.0405   57.0  0.7651  -44.8
 0.500  0.6333  -79.3  16.742  127.9  0.0433   54.6  0.7318  -48.5
 0.600  0.6084  -91.2  15.229  120.7  0.0479   50.4  0.6692  -55.3
 0.700  0.5870 -101.8  13.856  114.5  0.0518   47.2  0.6124  -61.3
 0.800  0.5706 -111.1  12.620  109.0  0.0549   44.5  0.5618  -66.7
 0.900  0.5577 -119.6  11.555  104.1  0.0577   42.4  0.5176  -71.5
 1.000  0.5477 -127.3  10.620   99.7  0.0602   40.7  0.4782  -76.1
 1.100  0.5403 -134.2   9.797   95.9  0.0624   39.3  0.4439  -80.3
 1.200  0.5350 -140.6   9.073   92.2  0.0645   38.0  0.4131  -84.6
 1.300  0.5310 -146.4   8.440   88.9  0.0665   37.1  0.3864  -88.4
 1.400  0.5291 -151.7   7.876   85.8  0.0683   36.2  0.3628  -92.2
 1.500  0.5265 -156.6   7.385   82.9  0.0703   35.4  0.3412  -95.9
 1.600  0.5261 -161.1   6.936   80.1  0.0720   34.8  0.3226  -99.4
 1.700  0.5251 -165.6   6.544   77.6  0.0739   34.1  0.3054 -103.0
 1.800  0.5247 -169.4   6.178   75.1  0.0757   33.6  0.2904 -106.3
 1.900  0.5255 -173.6   5.851   72.7  0.0775   33.0  0.2766 -110.3
 2.000  0.5243 -177.0   5.559   70.4  0.0793   32.5  0.2640 -113.5
 2.200  0.5265  175.8   5.048   66.0  0.0830   31.4  0.2424 -121.0
 2.400  0.5303  169.5   4.614   61.8  0.0865   30.3  0.2253 -128.9
 2.600  0.5386  163.3   4.245   57.8  0.0900   29.1  0.2123 -137.1
 2.800  0.5445  157.9   3.924   54.1  0.0935   28.1  0.2028 -145.2
 3.000  0.5533  152.9   3.647   50.4  0.0970   27.0  0.1965 -153.3
 3.500  0.5816  141.0   3.085   41.6  0.1056   23.9  0.1959 -173.6
 4.000  0.6076  130.8   2.658   33.2  0.1142   20.7  0.2096  169.9
 4.500  0.6282  122.7   2.314   25.3  0.1219   17.0  0.2295  157.1
 5.000  0.6390  116.3   2.042   18.4  0.1293   13.8  0.2456  147.4
 5.500  0.6519  109.9   1.832   11.7  0.1364   10.5  0.2640  139.1
 6.000  0.6709  103.7   1.667    5.1  0.1439    7.1  0.2856  131.2
 6.500  0.6911   98.1   1.528   -1.7  0.1519    3.2  0.3057  123.8
 7.000  0.7067   92.5   1.413   -8.6  0.1604   -1.0  0.3217  116.5
 7.500  0.7172   86.6   1.310  -15.7  0.1684   -5.9  0.3434  109.7
 8.000  0.7282   80.0   1.201  -23.0  0.1729  -11.5  0.3697  102.7
 8.500  0.7432   73.0   1.088  -29.6  0.1727  -16.4  0.4011   95.0
 9.000  0.7748   66.8   0.994  -35.2  0.1723  -19.8  0.4473   88.5
 9.500  0.8252   62.2   0.924  -40.3  0.1737  -22.9  0.5044   84.2
10.000  0.8623   58.9   0.837  -45.6  0.1754  -26.2  0.5544   80.7
!
!  f       Fmin   Gammaopt  rn/50
! GHz       dB    MAG  ANG    -
 0.900      0.79  0.08   30   0.13
 1.800      1.14  0.06  171   0.12
 2.400      1.24  0.10  160   0.13
 3.000      1.32  0.17 -165   0.12
 4.000      1.46  0.32 -132   0.14
 5.000      1.85  0.39 -110   0.25
 6.000      2.30  0.46  -95   0.37
!
! (c) 2009  Infineon Technologies AG, Munich