! Infineon Technologies  Discrete & RF Semiconductors
! BFP420
!
! VCE =  1.0 V,  IC =  12 mA
! Common Emitter S-Parameters:                            Nov 2009
# GHz  S  MA  R  50
!  f         S11            S21            S12            S22
! GHz     MAG   ANG      MAG   ANG      MAG   ANG      MAG   ANG
 0.010  0.6549   -2.7  30.513  179.3  0.0009  103.5  0.9544    0.5
 0.020  0.6567   -4.9  29.896  177.3  0.0023   90.4  0.9622   -2.6
 0.050  0.6533  -11.7  29.855  172.6  0.0054   85.5  0.9607   -6.9
 0.100  0.6500  -23.4  29.494  165.2  0.0105   79.9  0.9456  -14.0
 0.150  0.6390  -34.5  28.605  158.1  0.0153   75.1  0.9194  -20.9
 0.200  0.6273  -45.1  27.495  151.5  0.0197   70.6  0.8854  -27.3
 0.250  0.6106  -55.0  26.135  145.1  0.0236   66.6  0.8472  -33.2
 0.300  0.5972  -64.7  24.854  139.4  0.0271   63.0  0.8058  -38.8
 0.350  0.5842  -73.4  23.493  134.3  0.0302   59.9  0.7642  -43.8
 0.400  0.5716  -81.3  22.170  129.5  0.0328   57.2  0.7237  -48.4
 0.450  0.5600  -88.9  20.885  125.1  0.0352   54.8  0.6847  -52.7
 0.500  0.5504  -95.8  19.676  121.1  0.0373   52.8  0.6477  -56.7
 0.600  0.5331 -108.2  17.509  114.0  0.0408   49.6  0.5817  -63.7
 0.700  0.5211 -118.7  15.654  108.1  0.0438   47.3  0.5252  -69.8
 0.800  0.5123 -127.6  14.070  103.0  0.0464   45.7  0.4774  -75.3
 0.900  0.5070 -135.5  12.745   98.5  0.0488   44.5  0.4371  -80.3
 1.000  0.5041 -142.7  11.616   94.5  0.0511   43.5  0.4023  -85.2
 1.100  0.5019 -148.7  10.642   91.0  0.0533   42.9  0.3728  -89.5
 1.200  0.5014 -154.4   9.800   87.6  0.0554   42.3  0.3470  -94.1
 1.300  0.5009 -159.4   9.075   84.6  0.0576   41.9  0.3249  -98.2
 1.400  0.5020 -164.1   8.439   81.8  0.0597   41.4  0.3060 -102.4
 1.500  0.5020 -168.3   7.887   79.2  0.0619   41.1  0.2888 -106.4
 1.600  0.5043 -172.2   7.388   76.7  0.0640   40.7  0.2747 -110.4
 1.700  0.5054 -176.2   6.955   74.3  0.0663   40.3  0.2616 -114.4
 1.800  0.5061 -179.4   6.555   72.0  0.0685   39.9  0.2502 -118.1
 1.900  0.5096  177.0   6.196   69.9  0.0707   39.5  0.2406 -122.6
 2.000  0.5093  174.0   5.880   67.8  0.0729   39.1  0.2313 -126.1
 2.200  0.5134  167.7   5.326   63.6  0.0774   38.2  0.2171 -134.4
 2.400  0.5196  162.1   4.858   59.8  0.0817   37.0  0.2074 -143.0
 2.600  0.5290  156.7   4.464   55.9  0.0860   35.8  0.2014 -151.5
 2.800  0.5370  152.0   4.121   52.4  0.0903   34.7  0.1984 -159.7
 3.000  0.5465  147.5   3.826   48.9  0.0947   33.3  0.1979 -167.6
 3.500  0.5756  136.8   3.229   40.5  0.1050   29.7  0.2097  174.1
 4.000  0.6041  127.3   2.778   32.5  0.1151   25.8  0.2311  159.8
 4.500  0.6241  119.9   2.418   25.0  0.1241   21.6  0.2547  149.1
 5.000  0.6347  114.0   2.133   18.3  0.1326   17.8  0.2726  140.6
 5.500  0.6479  108.0   1.914   11.8  0.1406   14.0  0.2924  133.2
 6.000  0.6676  102.1   1.741    5.4  0.1490   10.1  0.3151  126.0
 6.500  0.6879   96.7   1.594   -1.3  0.1575    5.6  0.3358  119.2
 7.000  0.7036   91.2   1.475   -8.2  0.1665    1.1  0.3517  112.2
 7.500  0.7142   85.5   1.368  -15.1  0.1747   -4.2  0.3728  105.7
 8.000  0.7256   79.1   1.252  -22.2  0.1790  -10.1  0.3984   99.1
 8.500  0.7405   72.2   1.134  -28.8  0.1786  -15.2  0.4292   91.9
 9.000  0.7727   66.2   1.035  -34.2  0.1781  -18.9  0.4748   85.8
 9.500  0.8227   61.6   0.963  -39.2  0.1794  -22.1  0.5308   81.7
10.000  0.8604   58.4   0.872  -44.3  0.1807  -25.7  0.5790   78.1
!
!  f       Fmin   Gammaopt  rn/50
! GHz       dB    MAG  ANG    -
 0.900      0.95  0.03 -151   0.13
 1.800      1.27  0.13 -152   0.12
 2.400      1.38  0.13 -160   0.14
 3.000      1.43  0.22 -145   0.13
 4.000      1.58  0.35 -123   0.17
 5.000      2.03  0.43 -103   0.28
 6.000      2.40  0.47  -91   0.43
!
! (c) 2009  Infineon Technologies AG, Munich