! Infineon Technologies  Discrete & RF Semiconductors
! BFP420
!
! VCE =  1.0 V,  IC =  1.0 mA
! Common Emitter S-Parameters:                            Nov 2009
# GHz  S  MA  R  50
!  f         S11            S21            S12            S22
! GHz     MAG   ANG      MAG   ANG      MAG   ANG      MAG   ANG
 0.010  0.9677   -1.6   3.807  179.3  0.0010  102.5  0.9960   -0.2
 0.020  0.9587   -1.3   3.699  179.3  0.0026   89.2  0.9964   -0.8
 0.050  0.9585   -3.2   3.725  177.4  0.0063   87.8  0.9966   -2.0
 0.100  0.9590   -6.4   3.748  174.8  0.0124   86.5  0.9949   -4.1
 0.150  0.9586   -9.7   3.751  172.1  0.0188   84.0  0.9920   -6.1
 0.200  0.9580  -12.8   3.742  169.4  0.0250   82.1  0.9883   -8.2
 0.250  0.9533  -16.0   3.720  166.5  0.0311   80.0  0.9837  -10.2
 0.300  0.9514  -19.3   3.716  163.9  0.0373   78.0  0.9777  -12.2
 0.350  0.9477  -22.5   3.700  161.3  0.0433   75.9  0.9710  -14.2
 0.400  0.9449  -25.7   3.674  158.7  0.0493   73.8  0.9631  -16.1
 0.450  0.9393  -29.0   3.649  156.0  0.0551   71.8  0.9551  -18.1
 0.500  0.9350  -32.2   3.621  153.4  0.0609   69.9  0.9456  -19.9
 0.600  0.9241  -38.6   3.553  148.2  0.0720   65.8  0.9254  -23.7
 0.700  0.9115  -44.9   3.484  143.2  0.0825   61.9  0.9031  -27.3
 0.800  0.8991  -51.0   3.393  138.4  0.0924   58.1  0.8794  -30.7
 0.900  0.8857  -57.2   3.308  133.7  0.1015   54.4  0.8546  -34.0
 1.000  0.8723  -63.2   3.219  129.3  0.1102   50.8  0.8290  -37.2
 1.100  0.8596  -69.1   3.126  125.0  0.1180   47.5  0.8040  -40.1
 1.200  0.8460  -75.0   3.037  120.6  0.1254   44.1  0.7782  -43.1
 1.300  0.8334  -80.7   2.946  116.7  0.1321   40.9  0.7536  -45.8
 1.400  0.8210  -86.4   2.859  112.6  0.1381   37.7  0.7289  -48.5
 1.500  0.8089  -91.7   2.776  108.9  0.1438   34.8  0.7048  -51.0
 1.600  0.7984  -97.2   2.693  105.1  0.1484   31.8  0.6815  -53.4
 1.700  0.7856 -102.5   2.616  101.5  0.1532   29.1  0.6597  -55.6
 1.800  0.7751 -107.5   2.530   98.0  0.1570   26.4  0.6385  -57.8
 1.900  0.7660 -112.7   2.460   94.6  0.1606   23.7  0.6169  -60.1
 2.000  0.7551 -117.4   2.386   91.4  0.1637   21.2  0.5978  -62.0
 2.200  0.7369 -127.2   2.252   84.9  0.1689   16.4  0.5592  -66.1
 2.400  0.7218 -136.6   2.126   78.8  0.1727   11.6  0.5232  -70.0
 2.600  0.7113 -146.0   2.009   72.9  0.1748    7.2  0.4896  -73.8
 2.800  0.7016 -154.6   1.899   67.4  0.1757    3.2  0.4595  -77.4
 3.000  0.6969 -162.9   1.801   62.0  0.1758   -0.7  0.4322  -81.0
 3.500  0.6951  177.7   1.585   49.3  0.1726   -9.3  0.3729  -90.7
 4.000  0.7044  161.2   1.405   37.5  0.1666  -16.4  0.3295 -101.1
 4.500  0.7147  147.8   1.242   26.6  0.1583  -22.5  0.3010 -112.5
 5.000  0.7194  137.3   1.103   17.2  0.1481  -27.1  0.2829 -123.6
 5.500  0.7261  127.8   0.993    8.7  0.1375  -30.4  0.2709 -135.0
 6.000  0.7408  119.0   0.907    0.6  0.1279  -31.9  0.2665 -147.2
 6.500  0.7591  111.2   0.837   -7.5  0.1216  -32.3  0.2684 -159.4
 7.000  0.7738  103.9   0.776  -15.5  0.1180  -32.0  0.2730 -171.7
 7.500  0.7837   96.4   0.721  -23.2  0.1167  -31.8  0.2836  175.3
 8.000  0.7904   88.2   0.661  -31.1  0.1158  -32.3  0.2986  161.9
 8.500  0.7955   79.8   0.600  -38.2  0.1138  -32.5  0.3161  147.4
 9.000  0.8207   72.7   0.548  -44.4  0.1131  -31.5  0.3541  133.2
 9.500  0.8682   67.1   0.505  -49.9  0.1150  -30.2  0.4180  122.6
10.000  0.9053   63.1   0.454  -55.5  0.1198  -29.8  0.4910  115.1
!
!  f       Fmin   Gammaopt  rn/50
! GHz       dB    MAG  ANG    -
 0.900      0.53  0.67   34   0.35
 1.800      1.15  0.44   77   0.27
 2.400      1.28  0.44  100   0.22
 3.000      1.61  0.45  131   0.15
 4.000      1.90  0.47 -177   0.09
 5.000      2.32  0.44 -133   0.45
 6.000      3.43  0.60 -118   0.25
!
! (c) 2009  Infineon Technologies AG, Munich