! Infineon Technologies  Discrete & RF Semiconductors
! BFP420
!
! VCE =  1.0 V,  IC =  9.0 mA
! Common Emitter S-Parameters:                            Nov 2009
# GHz  S  MA  R  50
!  f         S11            S21            S12            S22
! GHz     MAG   ANG      MAG   ANG      MAG   ANG      MAG   ANG
 0.010  0.7262   -2.4  25.015  179.3  0.0010  104.3  0.9650    0.3
 0.020  0.7251   -4.0  24.496  177.7  0.0022   90.2  0.9719   -2.3
 0.050  0.7219   -9.7  24.509  173.5  0.0056   83.6  0.9702   -6.0
 0.100  0.7158  -19.4  24.349  167.2  0.0109   81.4  0.9592  -12.0
 0.150  0.7069  -28.7  23.814  160.8  0.0160   76.6  0.9397  -17.9
 0.200  0.6961  -37.7  23.121  154.9  0.0209   72.4  0.9134  -23.6
 0.250  0.6789  -46.5  22.231  149.1  0.0253   68.6  0.8833  -28.9
 0.300  0.6654  -54.9  21.397  143.8  0.0293   65.1  0.8491  -34.0
 0.350  0.6502  -62.8  20.459  138.9  0.0329   61.8  0.8138  -38.6
 0.400  0.6359  -70.2  19.515  134.2  0.0361   58.8  0.7778  -43.0
 0.450  0.6204  -77.3  18.570  129.9  0.0390   56.3  0.7426  -47.1
 0.500  0.6082  -83.9  17.652  125.9  0.0415   53.9  0.7080  -50.9
 0.600  0.5844  -96.0  15.955  118.7  0.0458   50.0  0.6438  -57.8
 0.700  0.5656 -106.7  14.431  112.5  0.0493   47.0  0.5865  -63.8
 0.800  0.5507 -115.9  13.092  107.1  0.0523   44.7  0.5364  -69.2
 0.900  0.5407 -124.3  11.944  102.4  0.0549   42.8  0.4930  -74.1
 1.000  0.5324 -131.9  10.951   98.1  0.0573   41.3  0.4547  -78.8
 1.100  0.5269 -138.5  10.078   94.3  0.0594   40.1  0.4218  -83.0
 1.200  0.5235 -144.8   9.313   90.7  0.0615   39.1  0.3924  -87.4
 1.300  0.5209 -150.4   8.651   87.5  0.0636   38.3  0.3669  -91.2
 1.400  0.5192 -155.5   8.063   84.5  0.0655   37.6  0.3446  -95.2
 1.500  0.5182 -160.2   7.553   81.7  0.0674   37.0  0.3243  -99.0
 1.600  0.5185 -164.5   7.087   79.0  0.0693   36.4  0.3070 -102.6
 1.700  0.5179 -168.9   6.680   76.5  0.0713   35.9  0.2911 -106.4
 1.800  0.5182 -172.6   6.304   74.1  0.0732   35.4  0.2770 -109.8
 1.900  0.5199 -176.5   5.966   71.8  0.0751   34.9  0.2645 -113.9
 2.000  0.5187 -179.9   5.667   69.6  0.0771   34.4  0.2528 -117.2
 2.200  0.5210  173.3   5.142   65.2  0.0809   33.4  0.2335 -125.0
 2.400  0.5262  167.1   4.695   61.2  0.0848   32.3  0.2187 -133.2
 2.600  0.5347  161.3   4.319   57.2  0.0885   31.2  0.2078 -141.6
 2.800  0.5419  156.1   3.989   53.5  0.0923   30.2  0.2003 -149.7
 3.000  0.5513  151.2   3.706   50.0  0.0961   29.0  0.1959 -157.8
 3.500  0.5798  139.7   3.133   41.2  0.1053   25.8  0.1996 -177.7
 4.000  0.6066  129.7   2.699   33.0  0.1144   22.3  0.2160  166.4
 4.500  0.6262  121.8   2.349   25.2  0.1225   18.5  0.2371  154.4
 5.000  0.6369  115.6   2.073   18.4  0.1303   15.1  0.2539  145.1
 5.500  0.6501  109.3   1.859   11.8  0.1377   11.6  0.2729  137.0
 6.000  0.6698  103.2   1.691    5.2  0.1455    8.1  0.2948  129.4
 6.500  0.6900   97.7   1.550   -1.6  0.1537    4.0  0.3152  122.2
 7.000  0.7054   92.1   1.434   -8.5  0.1624   -0.3  0.3311  115.0
 7.500  0.7160   86.3   1.330  -15.5  0.1704   -5.4  0.3526  108.3
 8.000  0.7272   79.7   1.219  -22.7  0.1748  -11.0  0.3788  101.5
 8.500  0.7419   72.7   1.103  -29.3  0.1746  -16.0  0.4099   93.9
 9.000  0.7740   66.6   1.008  -34.8  0.1742  -19.5  0.4560   87.6
 9.500  0.8237   62.1   0.937  -40.0  0.1756  -22.6  0.5128   83.3
10.000  0.8616   58.7   0.849  -45.2  0.1771  -26.1  0.5621   79.8
!
!  f       Fmin   Gammaopt  rn/50
! GHz       dB    MAG  ANG    -
!
! noise parameter not availible yet for this operation point!
!
! (c) 2009  Infineon Technologies AG, Munich