! Infineon Technologies  Discrete & RF Semiconductors
! BFP420
!
! VCE =  1.5 V,  IC =  5.0 mA
! Common Emitter S-Parameters:                            Nov 2009
# GHz  S  MA  R  50
!  f         S11            S21            S12            S22
! GHz     MAG   ANG      MAG   ANG      MAG   ANG      MAG   ANG
 0.010  0.8377   -1.7  15.866  179.3  0.0010   86.2  0.9824    0.2
 0.020  0.8302   -2.5  15.497  178.4  0.0021   91.6  0.9869   -1.5
 0.050  0.8301   -6.3  15.539  175.3  0.0052   87.1  0.9861   -3.8
 0.100  0.8277  -12.6  15.554  170.9  0.0104   83.7  0.9812   -7.8
 0.150  0.8218  -18.9  15.410  166.3  0.0156   80.2  0.9723  -11.6
 0.200  0.8159  -25.1  15.209  161.9  0.0204   77.1  0.9595  -15.4
 0.250  0.8044  -31.1  14.907  157.3  0.0253   74.1  0.9446  -19.1
 0.300  0.7940  -37.2  14.648  153.2  0.0298   71.0  0.9261  -22.7
 0.350  0.7817  -43.0  14.315  149.1  0.0341   68.0  0.9058  -26.1
 0.400  0.7697  -48.7  13.953  145.1  0.0381   65.2  0.8835  -29.5
 0.450  0.7550  -54.3  13.567  141.3  0.0419   62.6  0.8607  -32.6
 0.500  0.7413  -59.6  13.167  137.6  0.0453   60.1  0.8364  -35.7
 0.600  0.7147  -70.0  12.365  130.7  0.0515   55.5  0.7876  -41.4
 0.700  0.6876  -79.7  11.565  124.4  0.0567   51.5  0.7390  -46.6
 0.800  0.6644  -88.5  10.780  118.8  0.0612   48.0  0.6927  -51.3
 0.900  0.6430  -96.9  10.071  113.5  0.0649   44.9  0.6490  -55.6
 1.000  0.6255 -104.8   9.409  108.8  0.0682   42.3  0.6081  -59.6
 1.100  0.6109 -112.0   8.797  104.5  0.0710   39.9  0.5710  -63.2
 1.200  0.5979 -118.9   8.243  100.4  0.0735   37.9  0.5360  -66.8
 1.300  0.5872 -125.3   7.744   96.7  0.0759   36.0  0.5051  -70.0
 1.400  0.5784 -131.3   7.285   93.1  0.0778   34.3  0.4759  -73.1
 1.500  0.5706 -136.9   6.878   90.0  0.0797   32.9  0.4489  -76.1
 1.600  0.5651 -142.2   6.498   86.8  0.0813   31.6  0.4249  -78.8
 1.700  0.5595 -147.4   6.164   83.9  0.0829   30.4  0.4022  -81.6
 1.800  0.5549 -151.9   5.843   81.1  0.0844   29.3  0.3820  -84.1
 1.900  0.5521 -156.7   5.554   78.4  0.0859   28.2  0.3621  -87.0
 2.000  0.5480 -160.8   5.293   75.9  0.0873   27.4  0.3446  -89.3
 2.200  0.5441 -169.3   4.834   70.9  0.0900   25.6  0.3118  -94.6
 2.400  0.5435 -177.1   4.436   66.3  0.0924   24.0  0.2828 -100.1
 2.600  0.5478  175.6   4.096   61.8  0.0947   22.5  0.2574 -106.0
 2.800  0.5505  169.2   3.794   57.8  0.0969   21.3  0.2355 -112.0
 3.000  0.5568  163.2   3.535   53.8  0.0992   20.1  0.2169 -118.2
 3.500  0.5805  149.3   3.005   44.3  0.1046   17.2  0.1838 -136.9
 4.000  0.6059  137.4   2.597   35.3  0.1105   14.5  0.1708 -156.6
 4.500  0.6247  128.2   2.265   27.0  0.1159   11.5  0.1738 -174.3
 5.000  0.6361  120.9   1.999   19.7  0.1212    9.0  0.1813  171.9
 5.500  0.6486  113.9   1.793   12.6  0.1263    6.5  0.1935  159.6
 6.000  0.6677  107.1   1.632    5.8  0.1321    4.0  0.2099  148.7
 6.500  0.6889  101.1   1.498   -1.3  0.1390    1.0  0.2273  139.2
 7.000  0.7039   95.2   1.386   -8.5  0.1467   -2.4  0.2423  130.3
 7.500  0.7149   89.0   1.286  -15.6  0.1543   -6.5  0.2640  122.0
 8.000  0.7265   82.0   1.180  -23.1  0.1591  -11.5  0.2912  113.4
 8.500  0.7409   74.7   1.070  -29.9  0.1596  -16.0  0.3239  104.1
 9.000  0.7722   68.4   0.978  -35.8  0.1599  -19.2  0.3721   96.2
 9.500  0.8233   63.6   0.909  -41.2  0.1615  -21.9  0.4320   91.1
10.000  0.8619   60.1   0.823  -46.8  0.1639  -24.8  0.4870   87.6
!
!  f       Fmin   Gammaopt  rn/50
! GHz       dB    MAG  ANG    -
 0.900      0.66  0.21   31   0.15
 1.800      1.05  0.09   93   0.13
 2.400      1.14  0.14  119   0.13
 3.000      1.24  0.17  165   0.11
 4.000      1.41  0.31 -145   0.12
 5.000      1.85  0.38 -119   0.21
 6.000      2.30  0.45 -101   0.36
!
! (c) 2009  Infineon Technologies AG, Munich