! Infineon Technologies  Discrete & RF Semiconductors
! BFP420
!
! VCE =  1.5 V,  IC =  35 mA
! Common Emitter S-Parameters:                            Nov 2009
# GHz  S  MA  R  50
!  f         S11            S21            S12            S22
! GHz     MAG   ANG      MAG   ANG      MAG   ANG      MAG   ANG
 0.010  0.3416   -7.4  51.800  179.7  0.0015  124.4  0.8922    2.4
 0.020  0.3481  -10.5  51.038  176.0  0.0019   91.4  0.9158   -2.6
 0.050  0.3442  -23.7  50.656  169.4  0.0040   86.0  0.9186   -8.9
 0.100  0.3565  -45.8  48.858  158.7  0.0074   77.7  0.8890  -18.9
 0.150  0.3649  -64.5  45.701  149.0  0.0105   72.7  0.8374  -27.8
 0.200  0.3763  -80.4  42.166  140.6  0.0131   68.2  0.7775  -35.4
 0.250  0.3829  -94.3  38.471  133.3  0.0153   64.9  0.7174  -42.0
 0.300  0.3927 -105.6  35.204  127.1  0.0172   62.6  0.6600  -47.6
 0.350  0.4006 -114.9  32.178  121.8  0.0190   60.8  0.6081  -52.3
 0.400  0.4067 -122.7  29.485  117.1  0.0205   59.8  0.5623  -56.4
 0.450  0.4126 -129.6  27.096  113.1  0.0219   58.8  0.5215  -60.1
 0.500  0.4173 -135.5  24.995  109.5  0.0232   58.4  0.4856  -63.3
 0.600  0.4258 -145.1  21.517  103.4  0.0258   57.8  0.4264  -69.0
 0.700  0.4333 -152.9  18.792   98.4  0.0284   57.7  0.3801  -73.9
 0.800  0.4384 -159.2  16.608   94.2  0.0309   57.7  0.3429  -78.4
 0.900  0.4443 -164.6  14.857   90.4  0.0334   57.7  0.3128  -82.5
 1.000  0.4493 -169.4  13.404   87.1  0.0360   57.7  0.2874  -86.8
 1.100  0.4538 -173.4  12.191   84.2  0.0386   57.7  0.2664  -90.6
 1.200  0.4590 -177.2  11.158   81.4  0.0412   57.5  0.2483  -94.9
 1.300  0.4628  179.4  10.282   78.9  0.0439   57.2  0.2329  -98.7
 1.400  0.4671  176.3   9.524   76.5  0.0466   56.9  0.2200 -102.8
 1.500  0.4698  173.3   8.872   74.3  0.0493   56.5  0.2081 -106.7
 1.600  0.4741  170.7   8.289   72.1  0.0520   56.1  0.1986 -110.8
 1.700  0.4773  167.8   7.782   70.1  0.0547   55.5  0.1898 -114.9
 1.800  0.4792  165.5   7.321   68.0  0.0574   54.9  0.1821 -118.7
 1.900  0.4840  163.0   6.907   66.2  0.0601   54.2  0.1761 -123.5
 2.000  0.4858  160.7   6.547   64.3  0.0629   53.5  0.1697 -127.1
 2.200  0.4908  155.9   5.912   60.6  0.0682   52.0  0.1612 -136.1
 2.400  0.4993  151.5   5.385   57.2  0.0734   50.3  0.1562 -145.4
 2.600  0.5103  147.2   4.938   53.7  0.0786   48.5  0.1547 -154.8
 2.800  0.5184  143.5   4.555   50.6  0.0837   46.8  0.1556 -163.6
 3.000  0.5294  139.9   4.225   47.4  0.0887   45.0  0.1587 -171.9
 3.500  0.5602  130.9   3.562   39.6  0.1007   40.1  0.1777  169.4
 4.000  0.5892  122.7   3.064   32.1  0.1121   35.1  0.2040  155.6
 4.500  0.6097  116.3   2.665   24.9  0.1222   30.0  0.2310  145.6
 5.000  0.6219  111.0   2.352   18.6  0.1317   25.4  0.2515  137.6
 5.500  0.6366  105.5   2.111   12.4  0.1407   20.9  0.2733  130.5
 6.000  0.6562  100.0   1.920    6.1  0.1497   16.4  0.2975  123.6
 6.500  0.6772   95.0   1.758   -0.4  0.1587   11.4  0.3194  117.0
 7.000  0.6933   89.8   1.626   -7.0  0.1681    6.4  0.3358  110.1
 7.500  0.7041   84.3   1.507  -13.9  0.1766    0.6  0.3570  103.9
 8.000  0.7165   78.1   1.380  -20.9  0.1812   -5.6  0.3834   97.5
 8.500  0.7332   71.4   1.250  -27.3  0.1811  -11.0  0.4161   90.5
 9.000  0.7668   65.6   1.141  -32.6  0.1808  -14.9  0.4632   84.6
 9.500  0.8181   61.2   1.061  -37.6  0.1822  -18.5  0.5201   80.5
10.000  0.8566   58.0   0.962  -42.7  0.1835  -22.2  0.5685   77.0
!
!  f       Fmin   Gammaopt  rn/50
! GHz       dB    MAG  ANG    -
 0.900      1.64  0.30 -155   0.13
 1.800      1.90  0.37 -142   0.15
 2.400      2.10  0.34 -134   0.19
 3.000      2.11  0.40 -126   0.22
 4.000      2.25  0.50 -110   0.35
 5.000      2.73  0.54  -94   0.59
 6.000      3.16  0.59  -82   0.84
!
! (c) 2009  Infineon Technologies AG, Munich