! Infineon Technologies  Discrete & RF Semiconductors
! BFP420
!
! VCE =  1.5 V,  IC =  2.0 mA
! Common Emitter S-Parameters:                            Nov 2009
# GHz  S  MA  R  50
!  f         S11            S21            S12            S22
! GHz     MAG   ANG      MAG   ANG      MAG   ANG      MAG   ANG
 0.010  0.9293   -1.1   7.041  179.4  0.0013  101.1  0.9931    0.0
 0.020  0.9292   -1.6   6.844  179.1  0.0024   85.1  0.9945   -0.9
 0.050  0.9287   -4.0   6.887  176.9  0.0055   89.0  0.9946   -2.4
 0.100  0.9240   -7.9   6.924  173.9  0.0110   85.7  0.9927   -4.8
 0.150  0.9228  -11.9   6.911  170.7  0.0166   83.1  0.9891   -7.3
 0.200  0.9220  -15.8   6.888  167.7  0.0220   80.9  0.9839   -9.6
 0.250  0.9170  -19.7   6.829  164.4  0.0274   78.7  0.9779  -12.0
 0.300  0.9117  -23.7   6.798  161.4  0.0327   76.4  0.9699  -14.4
 0.350  0.9062  -27.7   6.744  158.5  0.0379   74.0  0.9610  -16.7
 0.400  0.9009  -31.5   6.673  155.5  0.0429   71.8  0.9506  -19.0
 0.450  0.8928  -35.4   6.601  152.5  0.0479   69.5  0.9399  -21.2
 0.500  0.8851  -39.2   6.515  149.5  0.0526   67.4  0.9273  -23.4
 0.600  0.8693  -46.9   6.338  143.8  0.0617   63.0  0.9012  -27.8
 0.700  0.8514  -54.2   6.139  138.4  0.0699   58.9  0.8720  -31.9
 0.800  0.8329  -61.4   5.913  133.2  0.0775   55.0  0.8416  -35.7
 0.900  0.8149  -68.4   5.696  128.2  0.0843   51.3  0.8107  -39.3
 1.000  0.7980  -75.3   5.482  123.5  0.0906   47.8  0.7793  -42.9
 1.100  0.7804  -81.7   5.261  119.1  0.0961   44.5  0.7489  -46.1
 1.200  0.7642  -88.2   5.047  114.7  0.1012   41.4  0.7181  -49.3
 1.300  0.7490  -94.4   4.846  110.6  0.1056   38.4  0.6892  -52.2
 1.400  0.7346 -100.5   4.651  106.6  0.1094   35.6  0.6607  -55.1
 1.500  0.7217 -106.1   4.467  103.0  0.1130   33.0  0.6337  -57.7
 1.600  0.7106 -111.8   4.293   99.3  0.1158   30.4  0.6078  -60.2
 1.700  0.6981 -117.3   4.126   95.9  0.1187   28.1  0.5833  -62.6
 1.800  0.6881 -122.4   3.958   92.6  0.1209   25.8  0.5605  -64.8
 1.900  0.6788 -127.7   3.813   89.4  0.1230   23.7  0.5373  -67.2
 2.000  0.6697 -132.4   3.668   86.4  0.1248   21.7  0.5167  -69.1
 2.200  0.6547 -142.0   3.413   80.5  0.1277   17.9  0.4766  -73.3
 2.400  0.6427 -151.2   3.178   74.9  0.1297   14.3  0.4395  -77.4
 2.600  0.6367 -160.2   2.970   69.6  0.1308   11.0  0.4057  -81.4
 2.800  0.6316 -168.3   2.777   64.6  0.1314    8.2  0.3754  -85.2
 3.000  0.6307 -176.0   2.612   59.9  0.1315    5.5  0.3481  -89.0
 3.500  0.6390  166.4   2.257   48.5  0.1304   -0.2  0.2901  -99.8
 4.000  0.6547  151.6   1.974   38.0  0.1288   -4.5  0.2487 -112.0
 4.500  0.6695  139.8   1.731   28.3  0.1263   -8.1  0.2230 -125.3
 5.000  0.6772  130.6   1.531   19.8  0.1235  -10.5  0.2081 -137.9
 5.500  0.6864  122.1   1.375   12.0  0.1211  -12.1  0.2001 -150.9
 6.000  0.7027  114.1   1.252    4.4  0.1200  -12.9  0.1993 -164.7
 6.500  0.7223  107.0   1.153   -3.3  0.1214  -13.6  0.2043 -177.8
 7.000  0.7378  100.3   1.068  -11.0  0.1248  -14.5  0.2111  170.2
 7.500  0.7486   93.4   0.992  -18.6  0.1294  -16.2  0.2255  157.9
 8.000  0.7574   85.7   0.910  -26.4  0.1329  -19.1  0.2456  145.0
 8.500  0.7671   77.8   0.826  -33.5  0.1333  -21.8  0.2704  131.2
 9.000  0.7954   70.9   0.757  -39.7  0.1337  -23.3  0.3146  118.7
 9.500  0.8443   65.8   0.700  -45.5  0.1359  -24.4  0.3783  110.4
10.000  0.8832   62.0   0.632  -51.4  0.1398  -25.9  0.4450  104.9
!
!  f       Fmin   Gammaopt  rn/50
! GHz       dB    MAG  ANG    -
 0.900      0.53  0.47   33   0.22
 1.800      1.03  0.29   77   0.17
 2.400      1.13  0.31  102   0.16
 3.000      1.32  0.31  136   0.12
 4.000      1.57  0.37 -168   0.10
 5.000      1.96  0.42 -129   0.28
 6.000      2.72  0.51 -111   0.37
!
! (c) 2009  Infineon Technologies AG, Munich