! Infineon Technologies  Discrete & RF Semiconductors
! BFP420
!
! VCE =  1.5 V,  IC =  12 mA
! Common Emitter S-Parameters:                            Nov 2009
# GHz  S  MA  R  50
!  f         S11            S21            S12            S22
! GHz     MAG   ANG      MAG   ANG      MAG   ANG      MAG   ANG
 0.010  0.6581   -2.4  30.724  179.3  0.0010   97.8  0.9601    0.8
 0.020  0.6632   -4.4  30.048  177.3  0.0019   89.4  0.9687   -2.3
 0.050  0.6592  -10.6  29.999  172.9  0.0047   86.4  0.9675   -6.1
 0.100  0.6535  -21.6  29.661  165.9  0.0093   80.7  0.9546  -12.5
 0.150  0.6441  -31.8  28.853  159.1  0.0137   76.4  0.9310  -18.6
 0.200  0.6319  -41.7  27.847  152.8  0.0177   72.2  0.9005  -24.3
 0.250  0.6150  -51.3  26.585  146.7  0.0213   68.2  0.8657  -29.7
 0.300  0.6006  -60.2  25.402  141.2  0.0245   65.0  0.8274  -34.7
 0.350  0.5865  -68.6  24.123  136.1  0.0275   61.9  0.7884  -39.3
 0.400  0.5734  -76.4  22.857  131.4  0.0300   59.2  0.7500  -43.4
 0.450  0.5606  -83.7  21.618  127.1  0.0323   56.9  0.7125  -47.3
 0.500  0.5484  -90.5  20.440  123.1  0.0343   55.0  0.6765  -50.8
 0.600  0.5290 -102.8  18.298  115.9  0.0378   51.7  0.6112  -57.1
 0.700  0.5144 -113.5  16.434  110.0  0.0408   49.4  0.5544  -62.6
 0.800  0.5032 -122.6  14.824  104.8  0.0433   47.7  0.5056  -67.4
 0.900  0.4959 -130.7  13.469  100.2  0.0457   46.4  0.4639  -71.8
 1.000  0.4910 -138.1  12.300   96.1  0.0480   45.5  0.4271  -76.0
 1.100  0.4871 -144.4  11.286   92.5  0.0501   44.7  0.3959  -79.7
 1.200  0.4854 -150.3  10.407   89.0  0.0522   44.1  0.3679  -83.6
 1.300  0.4847 -155.6   9.647   86.0  0.0543   43.6  0.3437  -87.0
 1.400  0.4847 -160.5   8.976   83.1  0.0564   43.2  0.3225  -90.6
 1.500  0.4846 -164.9   8.394   80.4  0.0585   42.8  0.3030  -94.0
 1.600  0.4861 -169.0   7.869   77.9  0.0606   42.4  0.2865  -97.3
 1.700  0.4867 -173.1   7.408   75.5  0.0628   42.0  0.2710 -100.8
 1.800  0.4876 -176.6   6.982   73.1  0.0649   41.6  0.2573 -103.9
 1.900  0.4903  179.6   6.602   70.9  0.0670   41.1  0.2449 -107.8
 2.000  0.4889  176.6   6.267   68.8  0.0692   40.7  0.2334 -110.8
 2.200  0.4929  170.2   5.678   64.6  0.0735   39.8  0.2138 -118.3
 2.400  0.4992  164.2   5.180   60.7  0.0778   38.6  0.1982 -126.2
 2.600  0.5080  158.8   4.759   57.0  0.0819   37.4  0.1864 -134.7
 2.800  0.5159  153.7   4.394   53.4  0.0862   36.3  0.1778 -143.2
 3.000  0.5266  149.1   4.080   50.0  0.0904   35.0  0.1723 -151.7
 3.500  0.5562  138.1   3.446   41.6  0.1006   31.4  0.1737 -173.3
 4.000  0.5841  128.5   2.967   33.5  0.1105   27.5  0.1893  169.3
 4.500  0.6051  121.0   2.583   26.0  0.1195   23.4  0.2109  156.3
 5.000  0.6178  114.9   2.279   19.3  0.1279   19.5  0.2285  146.4
 5.500  0.6317  108.8   2.044   12.9  0.1359   15.7  0.2481  137.9
 6.000  0.6519  102.9   1.858    6.4  0.1440   11.8  0.2704  130.0
 6.500  0.6730   97.4   1.704   -0.3  0.1526    7.5  0.2913  122.6
 7.000  0.6887   92.0   1.575   -7.2  0.1615    3.0  0.3072  115.2
 7.500  0.7001   86.2   1.460  -14.1  0.1698   -2.3  0.3288  108.4
 8.000  0.7123   79.7   1.338  -21.2  0.1746   -8.1  0.3557  101.5
 8.500  0.7293   72.8   1.212  -27.8  0.1747  -13.3  0.3886   93.9
 9.000  0.7624   66.7   1.107  -33.3  0.1745  -17.0  0.4360   87.5
 9.500  0.8141   62.2   1.030  -38.4  0.1760  -20.3  0.4934   83.2
10.000  0.8527   58.9   0.933  -43.7  0.1776  -23.8  0.5433   79.7
!
!  f       Fmin   Gammaopt  rn/50
! GHz       dB    MAG  ANG    -
 0.900      0.95  0.03 -151   0.13
 1.800      1.27  0.13 -152   0.12
 2.400      1.38  0.13 -160   0.14
 3.000      1.43  0.22 -145   0.13
 4.000      1.58  0.35 -123   0.17
 5.000      2.03  0.43 -103   0.28
 6.000      2.40  0.47  -91   0.43
!
! (c) 2009  Infineon Technologies AG, Munich