! Infineon Technologies  Discrete & RF Semiconductors
! BFP420
!
! VCE =  1.5 V,  IC =  20 mA
! Common Emitter S-Parameters:                            Nov 2009
# GHz  S  MA  R  50
!  f         S11            S21            S12            S22
! GHz     MAG   ANG      MAG   ANG      MAG   ANG      MAG   ANG
 0.010  0.5205   -3.3  41.413  179.3  0.0010  113.2  0.9356    1.3
 0.020  0.5213   -6.0  40.589  176.6  0.0018   87.7  0.9494   -2.6
 0.050  0.5201  -15.3  40.374  171.1  0.0043   84.8  0.9486   -7.6
 0.100  0.5155  -29.9  39.488  162.4  0.0085   79.1  0.9279  -15.7
 0.150  0.5077  -44.0  37.749  154.2  0.0121   74.1  0.8915  -23.3
 0.200  0.5014  -56.7  35.695  146.8  0.0155   69.7  0.8465  -30.2
 0.250  0.4888  -68.5  33.353  139.9  0.0184   66.0  0.7980  -36.3
 0.300  0.4823  -79.4  31.194  133.9  0.0209   62.7  0.7482  -41.8
 0.350  0.4751  -88.9  29.046  128.6  0.0231   60.2  0.7005  -46.6
 0.400  0.4703  -97.4  27.031  123.8  0.0250   58.1  0.6561  -51.0
 0.450  0.4650 -105.1  25.171  119.5  0.0267   56.5  0.6149  -54.8
 0.500  0.4606 -111.9  23.465  115.7  0.0282   55.3  0.5770  -58.3
 0.600  0.4558 -123.9  20.541  109.0  0.0310   53.5  0.5123  -64.5
 0.700  0.4534 -133.7  18.145  103.5  0.0336   52.5  0.4593  -69.8
 0.800  0.4523 -141.7  16.168   98.8  0.0360   51.8  0.4156  -74.5
 0.900  0.4533 -148.7  14.552   94.6  0.0384   51.3  0.3794  -78.8
 1.000  0.4550 -155.0  13.191   91.0  0.0407   51.1  0.3485  -83.1
 1.100  0.4566 -160.2  12.032   87.7  0.0431   50.9  0.3226  -86.9
 1.200  0.4594 -165.0  11.049   84.7  0.0454   50.7  0.2999  -91.0
 1.300  0.4618 -169.3  10.202   81.9  0.0479   50.6  0.2807  -94.7
 1.400  0.4644 -173.4   9.464   79.3  0.0503   50.3  0.2642  -98.6
 1.500  0.4667 -177.1   8.829   76.9  0.0528   50.0  0.2489 -102.3
 1.600  0.4699  179.7   8.258   74.6  0.0552   49.7  0.2365 -106.1
 1.700  0.4723  176.2   7.760   72.4  0.0577   49.3  0.2249 -109.9
 1.800  0.4748  173.4   7.305   70.2  0.0603   48.9  0.2148 -113.5
 1.900  0.4783  170.3   6.897   68.2  0.0627   48.4  0.2061 -117.9
 2.000  0.4783  167.7   6.541   66.3  0.0653   47.8  0.1976 -121.3
 2.200  0.4843  162.2   5.914   62.4  0.0703   46.7  0.1847 -129.7
 2.400  0.4915  157.1   5.388   58.8  0.0752   45.3  0.1757 -138.6
 2.600  0.5025  152.3   4.944   55.2  0.0800   43.8  0.1702 -147.7
 2.800  0.5104  148.0   4.562   51.9  0.0848   42.4  0.1677 -156.5
 3.000  0.5219  143.9   4.233   48.6  0.0896   40.8  0.1678 -164.9
 3.500  0.5524  134.0   3.571   40.6  0.1010   36.4  0.1808  175.3
 4.000  0.5817  125.3   3.071   32.9  0.1119   31.9  0.2037  160.2
 4.500  0.6022  118.3   2.672   25.6  0.1217   27.2  0.2289  149.2
 5.000  0.6152  112.8   2.359   19.1  0.1308   22.9  0.2484  140.5
 5.500  0.6297  107.0   2.116   12.8  0.1395   18.6  0.2694  132.9
 6.000  0.6500  101.3   1.923    6.5  0.1482   14.3  0.2928  125.6
 6.500  0.6707   96.1   1.762   -0.1  0.1571    9.6  0.3143  118.8
 7.000  0.6864   90.9   1.629   -6.8  0.1663    4.7  0.3304  111.7
 7.500  0.6983   85.3   1.510  -13.6  0.1747   -0.8  0.3517  105.2
 8.000  0.7108   78.8   1.383  -20.7  0.1794   -6.9  0.3782   98.7
 8.500  0.7282   72.1   1.252  -27.2  0.1792  -12.2  0.4108   91.5
 9.000  0.7619   66.1   1.143  -32.6  0.1789  -16.1  0.4579   85.5
 9.500  0.8130   61.7   1.064  -37.6  0.1803  -19.5  0.5149   81.3
10.000  0.8529   58.4   0.964  -42.7  0.1818  -23.3  0.5635   77.7
!
!  f       Fmin   Gammaopt  rn/50
! GHz       dB    MAG  ANG    -
 0.900      1.23  0.16 -154   0.13
 1.800      1.51  0.24 -144   0.13
 2.400      1.66  0.22 -141   0.15
 3.000      1.69  0.30 -132   0.16
 4.000      1.82  0.42 -115   0.23
 5.000      2.28  0.48  -96   0.37
 6.000      2.65  0.52  -86   0.56
!
! (c) 2009  Infineon Technologies AG, Munich