! Infineon Technologies  Discrete & RF Semiconductors
! BFP420
!
! VCE =  1.0 V,  IC =  4.0 mA
! Common Emitter S-Parameters:                            Nov 2009
# GHz  S  MA  R  50
!  f         S11            S21            S12            S22
! GHz     MAG   ANG      MAG   ANG      MAG   ANG      MAG   ANG
 0.010  0.8543   -0.9  13.121  179.3  0.0013   98.0  0.9831    0.0
 0.020  0.8610   -2.4  12.785  178.6  0.0023   83.0  0.9878   -1.5
 0.050  0.8591   -5.9  12.836  175.7  0.0059   87.3  0.9864   -3.8
 0.100  0.8570  -11.9  12.870  171.4  0.0117   83.9  0.9823   -7.6
 0.150  0.8509  -17.7  12.775  167.1  0.0177   80.7  0.9741  -11.4
 0.200  0.8470  -23.5  12.635  162.9  0.0233   77.5  0.9628  -15.1
 0.250  0.8352  -29.2  12.412  158.5  0.0289   74.4  0.9494  -18.7
 0.300  0.8269  -34.9  12.230  154.5  0.0342   71.3  0.9324  -22.3
 0.350  0.8154  -40.4  11.987  150.7  0.0392   68.3  0.9140  -25.8
 0.400  0.8051  -45.8  11.716  146.8  0.0438   65.5  0.8935  -29.1
 0.450  0.7911  -51.1  11.429  143.1  0.0483   62.8  0.8724  -32.3
 0.500  0.7786  -56.3  11.125  139.5  0.0524   60.3  0.8495  -35.4
 0.600  0.7527  -66.3  10.512  132.6  0.0598   55.5  0.8034  -41.3
 0.700  0.7272  -75.7   9.887  126.4  0.0661   51.1  0.7564  -46.7
 0.800  0.7039  -84.3   9.263  120.8  0.0715   47.3  0.7112  -51.5
 0.900  0.6828  -92.6   8.694  115.5  0.0760   44.0  0.6677  -56.1
 1.000  0.6645 -100.5   8.157  110.7  0.0800   41.0  0.6271  -60.3
 1.100  0.6484 -107.6   7.656  106.4  0.0833   38.3  0.5897  -64.2
 1.200  0.6353 -114.6   7.199  102.1  0.0863   35.8  0.5542  -68.0
 1.300  0.6234 -121.0   6.782   98.3  0.0889   33.7  0.5226  -71.4
 1.400  0.6137 -127.1   6.399   94.7  0.0911   31.7  0.4929  -74.8
 1.500  0.6053 -132.7   6.055   91.4  0.0931   29.9  0.4653  -77.9
 1.600  0.5986 -138.2   5.733   88.1  0.0948   28.2  0.4407  -80.9
 1.700  0.5915 -143.4   5.447   85.1  0.0965   26.8  0.4175  -83.9
 1.800  0.5866 -148.1   5.170   82.2  0.0980   25.4  0.3966  -86.6
 1.900  0.5832 -153.1   4.925   79.4  0.0993   24.1  0.3763  -89.7
 2.000  0.5781 -157.3   4.700   76.8  0.1007   22.9  0.3585  -92.1
 2.200  0.5730 -165.9   4.304   71.6  0.1030   20.7  0.3251  -97.8
 2.400  0.5704 -173.9   3.957   66.8  0.1050   18.7  0.2956 -103.8
 2.600  0.5737  178.4   3.659   62.2  0.1068   16.9  0.2701 -110.0
 2.800  0.5763  171.8   3.396   58.0  0.1083   15.4  0.2483 -116.2
 3.000  0.5825  165.6   3.167   53.8  0.1100   14.0  0.2300 -122.5
 3.500  0.6036  151.1   2.696   43.9  0.1137   10.7  0.1988 -141.1
 4.000  0.6268  139.0   2.335   34.7  0.1177    7.9  0.1878 -160.1
 4.500  0.6441  129.4   2.037   26.1  0.1213    5.2  0.1920 -176.6
 5.000  0.6546  121.9   1.798   18.5  0.1249    2.9  0.2000  170.4
 5.500  0.6664  114.7   1.614   11.4  0.1286    0.8  0.2123  159.0
 6.000  0.6842  107.7   1.469    4.3  0.1333   -1.3  0.2290  148.7
 6.500  0.7046  101.6   1.349   -2.9  0.1392   -3.9  0.2468  139.6
 7.000  0.7197   95.5   1.249  -10.1  0.1462   -6.8  0.2623  131.0
 7.500  0.7304   89.3   1.159  -17.4  0.1532  -10.6  0.2845  122.8
 8.000  0.7408   82.2   1.063  -25.0  0.1575  -15.3  0.3115  114.3
 8.500  0.7530   74.8   0.963  -31.8  0.1576  -19.4  0.3431  105.0
 9.000  0.7832   68.4   0.881  -37.7  0.1576  -22.2  0.3904   97.1
 9.500  0.8326   63.6   0.818  -43.1  0.1591  -24.6  0.4503   92.1
10.000  0.8700   60.1   0.740  -48.6  0.1615  -27.3  0.5062   88.4
!
!  f       Fmin   Gammaopt  rn/50
! GHz       dB    MAG  ANG    -
 0.900      0.61  0.27   32   0.16
 1.800      1.03  0.14   83   0.13
 2.400      1.11  0.17  110   0.14
 3.000      1.23  0.20  153   0.11
 4.000      1.42  0.31 -151   0.11
 5.000      1.77  0.38 -123   0.23
 6.000      2.35  0.47 -104   0.33
!
! (c) 2009  Infineon Technologies AG, Munich