! Infineon Technologies  Discrete & RF Semiconductors
! BFP420
!
! VCE =  1.5 V,  IC =  4.0 mA
! Common Emitter S-Parameters:                            Nov 2009
# GHz  S  MA  R  50
!  f         S11            S21            S12            S22
! GHz     MAG   ANG      MAG   ANG      MAG   ANG      MAG   ANG
 0.010  0.8602   -2.0  13.109  179.4  0.0008  120.6  0.9868    0.0
 0.020  0.8616   -2.2  12.814  178.6  0.0021   87.4  0.9895   -1.3
 0.050  0.8611   -5.5  12.855  175.8  0.0054   85.5  0.9888   -3.4
 0.100  0.8575  -11.2  12.892  171.8  0.0107   84.3  0.9852   -6.9
 0.150  0.8537  -16.7  12.807  167.6  0.0159   81.1  0.9780  -10.3
 0.200  0.8496  -22.2  12.683  163.6  0.0210   78.3  0.9681  -13.6
 0.250  0.8391  -27.6  12.480  159.5  0.0260   75.3  0.9562  -16.9
 0.300  0.8311  -33.0  12.316  155.7  0.0307   72.4  0.9413  -20.2
 0.350  0.8203  -38.3  12.101  151.9  0.0354   69.7  0.9249  -23.3
 0.400  0.8103  -43.4  11.849  148.2  0.0397   67.0  0.9063  -26.4
 0.450  0.7972  -48.5  11.588  144.6  0.0437   64.4  0.8873  -29.3
 0.500  0.7847  -53.5  11.307  141.1  0.0477   62.1  0.8664  -32.2
 0.600  0.7598  -63.2  10.731  134.4  0.0546   57.3  0.8238  -37.6
 0.700  0.7340  -72.3  10.142  128.2  0.0606   53.1  0.7799  -42.5
 0.800  0.7108  -80.8   9.542  122.6  0.0658   49.4  0.7370  -47.1
 0.900  0.6892  -88.9   8.985  117.4  0.0703   46.0  0.6954  -51.3
 1.000  0.6697  -96.7   8.457  112.6  0.0742   43.1  0.6559  -55.2
 1.100  0.6528 -103.8   7.962  108.1  0.0775   40.4  0.6195  -58.8
 1.200  0.6383 -110.8   7.503  103.9  0.0805   37.9  0.5842  -62.3
 1.300  0.6254 -117.2   7.079  100.1  0.0831   35.7  0.5524  -65.4
 1.400  0.6144 -123.4   6.692   96.4  0.0852   33.7  0.5223  -68.5
 1.500  0.6042 -129.0   6.340   93.0  0.0874   31.9  0.4946  -71.3
 1.600  0.5973 -134.5   6.012   89.7  0.0891   30.3  0.4692  -74.0
 1.700  0.5885 -139.9   5.717   86.6  0.0908   28.8  0.4453  -76.7
 1.800  0.5835 -144.6   5.430   83.7  0.0922   27.4  0.4237  -79.1
 1.900  0.5787 -149.6   5.177   80.9  0.0937   26.1  0.4024  -81.8
 2.000  0.5730 -154.0   4.944   78.2  0.0950   24.9  0.3836  -84.0
 2.200  0.5658 -162.8   4.530   73.0  0.0974   22.6  0.3481  -88.9
 2.400  0.5624 -171.0   4.168   68.2  0.0995   20.6  0.3161  -93.9
 2.600  0.5647 -178.9   3.855   63.5  0.1013   18.8  0.2878  -99.1
 2.800  0.5663  174.1   3.579   59.3  0.1029   17.3  0.2632 -104.4
 3.000  0.5715  167.8   3.339   55.1  0.1046   15.8  0.2415 -109.8
 3.500  0.5915  153.0   2.846   45.2  0.1084   12.7  0.2000 -126.2
 4.000  0.6148  140.5   2.466   36.0  0.1125   10.0  0.1778 -144.5
 4.500  0.6337  130.7   2.152   27.3  0.1163    7.2  0.1729 -162.2
 5.000  0.6439  123.0   1.900   19.7  0.1201    5.0  0.1751 -176.8
 5.500  0.6560  115.7   1.704   12.6  0.1239    2.8  0.1833  169.8
 6.000  0.6745  108.6   1.551    5.5  0.1285    0.8  0.1965  157.7
 6.500  0.6949  102.4   1.425   -1.7  0.1346   -1.7  0.2120  147.2
 7.000  0.7108   96.3   1.319   -9.0  0.1416   -4.5  0.2259  137.5
 7.500  0.7215   89.9   1.224  -16.3  0.1488   -8.3  0.2471  128.4
 8.000  0.7326   82.8   1.122  -23.8  0.1535  -12.9  0.2737  119.0
 8.500  0.7456   75.4   1.018  -30.7  0.1542  -17.1  0.3057  108.8
 9.000  0.7766   68.9   0.932  -36.6  0.1545  -20.0  0.3538  100.1
 9.500  0.8273   64.0   0.865  -42.2  0.1562  -22.4  0.4147   94.7
10.000  0.8658   60.5   0.782  -47.8  0.1589  -25.1  0.4721   90.9
!
!  f       Fmin   Gammaopt  rn/50
! GHz       dB    MAG  ANG    -
 0.900      0.61  0.27   32   0.16
 1.800      1.03  0.14   83   0.13
 2.400      1.11  0.17  110   0.14
 3.000      1.23  0.20  153   0.11
 4.000      1.42  0.31 -151   0.11
 5.000      1.77  0.38 -123   0.23
 6.000      2.35  0.47 -104   0.33
!
! (c) 2009  Infineon Technologies AG, Munich