! Infineon Technologies  Discrete & RF Semiconductors
! BFP420
!
! VCE =  1.5 V,  IC =  9.0 mA
! Common Emitter S-Parameters:                            Nov 2009
# GHz  S  MA  R  50
!  f         S11            S21            S12            S22
! GHz     MAG   ANG      MAG   ANG      MAG   ANG      MAG   ANG
 0.010  0.7247   -2.7  25.141  179.3  0.0008   96.8  0.9704    0.5
 0.020  0.7258   -3.6  24.602  177.7  0.0020   91.9  0.9763   -2.0
 0.050  0.7206   -9.1  24.601  173.8  0.0049   85.4  0.9754   -5.3
 0.100  0.7224  -18.0  24.453  167.8  0.0097   81.6  0.9658  -10.7
 0.150  0.7115  -26.8  23.959  161.8  0.0144   77.9  0.9484  -16.1
 0.200  0.7004  -35.3  23.344  156.1  0.0187   73.8  0.9249  -21.1
 0.250  0.6852  -43.4  22.519  150.5  0.0228   70.1  0.8977  -25.9
 0.300  0.6707  -51.4  21.756  145.4  0.0265   66.8  0.8668  -30.5
 0.350  0.6553  -59.0  20.886  140.6  0.0300   63.5  0.8341  -34.8
 0.400  0.6412  -66.0  19.995  136.0  0.0329   60.8  0.8004  -38.7
 0.450  0.6256  -72.8  19.093  131.8  0.0356   58.2  0.7670  -42.4
 0.500  0.6117  -79.2  18.214  127.8  0.0381   56.0  0.7341  -45.9
 0.600  0.5855  -91.1  16.561  120.6  0.0423   52.0  0.6719  -52.2
 0.700  0.5648 -101.8  15.056  114.4  0.0458   49.1  0.6154  -57.6
 0.800  0.5476 -111.1  13.712  109.0  0.0487   46.6  0.5655  -62.5
 0.900  0.5351 -119.6  12.552  104.1  0.0513   44.8  0.5213  -66.8
 1.000  0.5257 -127.4  11.532   99.8  0.0536   43.2  0.4820  -71.0
 1.100  0.5179 -134.2  10.634   95.9  0.0558   42.1  0.4479  -74.6
 1.200  0.5128 -140.6   9.846   92.2  0.0579   41.0  0.4169  -78.4
 1.300  0.5095 -146.3   9.156   89.0  0.0599   40.1  0.3900  -81.7
 1.400  0.5070 -151.7   8.543   85.9  0.0618   39.4  0.3657  -85.1
 1.500  0.5043 -156.5   8.007   83.1  0.0637   38.7  0.3436  -88.3
 1.600  0.5038 -161.0   7.517   80.3  0.0656   38.2  0.3245  -91.5
 1.700  0.5021 -165.6   7.090   77.8  0.0675   37.6  0.3064  -94.6
 1.800  0.5024 -169.4   6.690   75.3  0.0694   37.1  0.2906  -97.6
 1.900  0.5030 -173.5   6.334   73.0  0.0712   36.6  0.2756 -101.1
 2.000  0.5020 -176.9   6.018   70.7  0.0732   36.1  0.2622 -103.8
 2.200  0.5044  175.9   5.463   66.3  0.0769   35.1  0.2382 -110.6
 2.400  0.5090  169.5   4.991   62.3  0.0807   34.0  0.2181 -117.8
 2.600  0.5167  163.4   4.590   58.2  0.0843   32.9  0.2018 -125.6
 2.800  0.5237  158.0   4.241   54.6  0.0880   31.9  0.1889 -133.4
 3.000  0.5330  153.0   3.940   51.0  0.0917   30.7  0.1793 -141.5
 3.500  0.5610  141.1   3.333   42.3  0.1008   27.5  0.1707 -163.4
 4.000  0.5892  131.0   2.873   34.0  0.1098   24.1  0.1793  177.6
 4.500  0.6098  122.9   2.501   26.3  0.1179   20.3  0.1972  163.0
 5.000  0.6220  116.6   2.207   19.4  0.1257   16.9  0.2129  152.0
 5.500  0.6356  110.1   1.979   12.8  0.1330   13.4  0.2310  142.6
 6.000  0.6551  104.0   1.800    6.3  0.1407    9.9  0.2522  134.0
 6.500  0.6764   98.4   1.651   -0.6  0.1489    5.9  0.2724  126.2
 7.000  0.6923   92.8   1.526   -7.5  0.1576    1.7  0.2882  118.4
 7.500  0.7032   87.0   1.415  -14.4  0.1658   -3.3  0.3101  111.4
 8.000  0.7159   80.4   1.297  -21.7  0.1706   -9.0  0.3372  104.2
 8.500  0.7318   73.3   1.176  -28.3  0.1708  -14.0  0.3702   96.2
 9.000  0.7645   67.2   1.075  -33.9  0.1708  -17.6  0.4179   89.5
 9.500  0.8157   62.6   0.999  -39.2  0.1722  -20.7  0.4759   85.0
10.000  0.8550   59.2   0.905  -44.5  0.1741  -24.2  0.5269   81.6
!
!  f       Fmin   Gammaopt  rn/50
! GHz       dB    MAG  ANG    -
!
! noise parameter not availible yet for this operation point!
!
! (c) 2009  Infineon Technologies AG, Munich