! Infineon Technologies  Discrete & RF Semiconductors
! BFP420
!
! VCE =  1.5 V,  IC =  1.2 mA
! Common Emitter S-Parameters:                            Nov 2009
# GHz  S  MA  R  50
!  f         S11            S21            S12            S22
! GHz     MAG   ANG      MAG   ANG      MAG   ANG      MAG   ANG
 0.010  0.9588   -1.7   4.513  179.5  0.0004   97.2  0.9965   -0.1
 0.020  0.9509   -1.3   4.372  179.4  0.0023   92.1  0.9960   -0.7
 0.050  0.9484   -3.2   4.412  177.3  0.0056   87.8  0.9962   -2.0
 0.100  0.9537   -6.6   4.436  174.8  0.0111   86.3  0.9950   -4.0
 0.150  0.9514   -9.9   4.439  172.0  0.0168   84.2  0.9924   -6.0
 0.200  0.9508  -13.2   4.428  169.4  0.0223   82.2  0.9886   -8.0
 0.250  0.9464  -16.4   4.403  166.5  0.0279   80.2  0.9844   -9.9
 0.300  0.9442  -19.8   4.395  163.9  0.0334   78.1  0.9788  -11.9
 0.350  0.9399  -23.1   4.379  161.3  0.0388   76.1  0.9724  -13.8
 0.400  0.9364  -26.3   4.344  158.7  0.0441   74.0  0.9649  -15.7
 0.450  0.9317  -29.6   4.317  156.0  0.0494   72.0  0.9572  -17.6
 0.500  0.9265  -32.9   4.282  153.4  0.0545   70.1  0.9480  -19.5
 0.600  0.9154  -39.4   4.200  148.2  0.0645   66.1  0.9286  -23.2
 0.700  0.9026  -45.9   4.115  143.2  0.0738   62.2  0.9067  -26.7
 0.800  0.8888  -52.2   4.003  138.4  0.0826   58.5  0.8832  -30.0
 0.900  0.8746  -58.4   3.900  133.7  0.0908   54.9  0.8588  -33.3
 1.000  0.8602  -64.6   3.793  129.2  0.0985   51.4  0.8337  -36.4
 1.100  0.8467  -70.5   3.678  124.9  0.1054   48.1  0.8086  -39.3
 1.200  0.8331  -76.5   3.569  120.6  0.1120   44.7  0.7828  -42.2
 1.300  0.8197  -82.3   3.460  116.6  0.1179   41.7  0.7581  -44.9
 1.400  0.8063  -88.0   3.351  112.6  0.1232   38.5  0.7333  -47.6
 1.500  0.7945  -93.5   3.248  109.0  0.1282   35.7  0.7091  -50.0
 1.600  0.7824  -98.9   3.147  105.1  0.1322   32.8  0.6854  -52.4
 1.700  0.7694 -104.3   3.052  101.6  0.1364   30.2  0.6633  -54.6
 1.800  0.7594 -109.3   2.949   98.1  0.1397   27.5  0.6418  -56.8
 1.900  0.7494 -114.6   2.864   94.8  0.1428   25.0  0.6196  -59.0
 2.000  0.7388 -119.3   2.772   91.6  0.1455   22.6  0.6001  -60.9
 2.200  0.7202 -129.0   2.609   85.3  0.1500   18.0  0.5609  -64.8
 2.400  0.7045 -138.6   2.457   79.3  0.1532   13.5  0.5242  -68.6
 2.600  0.6941 -147.8   2.317   73.6  0.1550    9.4  0.4899  -72.2
 2.800  0.6846 -156.4   2.184   68.2  0.1558    5.6  0.4591  -75.7
 3.000  0.6801 -164.6   2.068   63.0  0.1559    2.0  0.4311  -79.1
 3.500  0.6793  176.2   1.811   50.6  0.1533   -5.9  0.3699  -88.2
 4.000  0.6901  159.9   1.600   39.2  0.1487  -12.1  0.3242  -98.1
 4.500  0.7012  146.7   1.412   28.6  0.1422  -17.4  0.2928 -109.1
 5.000  0.7066  136.3   1.252   19.4  0.1345  -21.2  0.2719 -119.8
 5.500  0.7131  127.0   1.126   11.1  0.1265  -23.8  0.2568 -131.0
 6.000  0.7282  118.3   1.027    3.1  0.1198  -24.7  0.2491 -143.0
 6.500  0.7473  110.6   0.947   -4.9  0.1162  -24.8  0.2475 -155.4
 7.000  0.7616  103.4   0.879  -12.8  0.1153  -24.4  0.2487 -167.8
 7.500  0.7717   96.0   0.816  -20.6  0.1164  -24.5  0.2560  178.8
 8.000  0.7788   87.9   0.749  -28.5  0.1175  -25.6  0.2682  164.8
 8.500  0.7855   79.6   0.680  -35.6  0.1171  -26.6  0.2838  149.5
 9.000  0.8115   72.5   0.622  -42.0  0.1174  -26.5  0.3202  134.4
 9.500  0.8601   67.0   0.574  -47.7  0.1198  -26.1  0.3826  123.4
10.000  0.8979   63.0   0.517  -53.6  0.1247  -26.4  0.4543  115.9
!
!  f       Fmin   Gammaopt  rn/50
! GHz       dB    MAG  ANG    -
 0.900      0.53  0.62   33   0.31
 1.800      1.10  0.40   77   0.24
 2.400      1.23  0.41  100   0.20
 3.000      1.51  0.41  132   0.14
 4.000      1.80  0.44 -175   0.09
 5.000      2.23  0.45 -132   0.38
 6.000      3.18  0.57 -116   0.44
!
! (c) 2009  Infineon Technologies AG, Munich