! Infineon Technologies  Discrete & RF Semiconductors
! BFP420
!
! VCE =  1.0 V,  IC =  30 mA
! Common Emitter S-Parameters:                            Nov 2009
# GHz  S  MA  R  50
!  f         S11            S21            S12            S22
! GHz     MAG   ANG      MAG   ANG      MAG   ANG      MAG   ANG
 0.010  0.3902   -4.9  48.505  179.5  0.0017   92.0  0.8858    2.2
 0.020  0.3906  -10.1  47.836  176.0  0.0021   89.9  0.9069   -3.3
 0.050  0.3902  -23.1  47.487  169.2  0.0047   83.7  0.9067  -10.1
 0.100  0.3972  -45.2  45.776  158.4  0.0088   76.4  0.8748  -21.0
 0.150  0.4048  -64.2  42.732  148.5  0.0124   70.9  0.8224  -30.9
 0.200  0.4148  -80.2  39.367  140.1  0.0155   66.3  0.7616  -39.3
 0.250  0.4214  -94.0  35.854  132.7  0.0180   62.7  0.7010  -46.7
 0.300  0.4292 -105.3  32.742  126.5  0.0201   60.1  0.6433  -53.1
 0.350  0.4364 -114.7  29.891  121.2  0.0220   58.2  0.5915  -58.6
 0.400  0.4416 -122.7  27.368  116.5  0.0236   56.7  0.5461  -63.5
 0.450  0.4463 -129.5  25.120  112.5  0.0251   55.8  0.5057  -67.8
 0.500  0.4510 -135.4  23.154  108.9  0.0265   55.1  0.4705  -71.9
 0.600  0.4581 -145.1  19.908  102.8  0.0292   54.4  0.4129  -79.0
 0.700  0.4645 -152.9  17.364   97.9  0.0318   54.3  0.3683  -85.2
 0.800  0.4690 -159.2  15.341   93.6  0.0344   54.2  0.3333  -90.9
 0.900  0.4745 -164.6  13.716   89.9  0.0370   54.2  0.3053  -96.3
 1.000  0.4791 -169.4  12.369   86.6  0.0396   54.2  0.2826 -101.7
 1.100  0.4837 -173.5  11.245   83.7  0.0423   54.3  0.2642 -106.5
 1.200  0.4882 -177.4  10.295   80.9  0.0450   54.1  0.2492 -111.8
 1.300  0.4912  179.2   9.487   78.4  0.0478   53.9  0.2366 -116.5
 1.400  0.4955  176.1   8.787   76.0  0.0505   53.6  0.2269 -121.4
 1.500  0.4989  173.2   8.183   73.8  0.0533   53.3  0.2180 -126.0
 1.600  0.5019  170.6   7.648   71.6  0.0561   52.9  0.2116 -130.5
 1.700  0.5050  167.6   7.179   69.5  0.0589   52.4  0.2061 -135.1
 1.800  0.5072  165.3   6.756   67.5  0.0617   51.8  0.2011 -139.2
 1.900  0.5120  162.7   6.373   65.6  0.0644   51.2  0.1986 -143.9
 2.000  0.5118  160.4   6.041   63.7  0.0673   50.5  0.1948 -147.7
 2.200  0.5189  155.6   5.459   60.0  0.0728   49.1  0.1923 -156.1
 2.400  0.5259  151.2   4.971   56.5  0.0782   47.4  0.1933 -164.4
 2.600  0.5362  147.0   4.558   53.0  0.0834   45.7  0.1968 -172.1
 2.800  0.5449  143.2   4.205   49.8  0.0887   44.1  0.2019 -179.1
 3.000  0.5545  139.6   3.900   46.6  0.0938   42.3  0.2082  174.4
 3.500  0.5852  130.5   3.286   38.7  0.1060   37.4  0.2328  160.0
 4.000  0.6125  122.4   2.824   31.1  0.1176   32.4  0.2611  148.9
 4.500  0.6322  115.8   2.455   23.9  0.1277   27.4  0.2877  140.3
 5.000  0.6429  110.5   2.167   17.5  0.1372   22.9  0.3071  133.3
 5.500  0.6561  105.0   1.944   11.3  0.1462   18.5  0.3280  126.9
 6.000  0.6755   99.5   1.768    5.0  0.1553   13.9  0.3520  120.6
 6.500  0.6955   94.4   1.619   -1.5  0.1644    8.9  0.3732  114.3
 7.000  0.7107   89.3   1.497   -8.1  0.1737    3.8  0.3889  107.7
 7.500  0.7205   83.8   1.388  -15.0  0.1820   -1.9  0.4092  101.6
 8.000  0.7318   77.5   1.270  -22.0  0.1862   -8.1  0.4339   95.4
 8.500  0.7466   70.9   1.149  -28.4  0.1854  -13.5  0.4636   88.7
 9.000  0.7789   65.1   1.048  -33.6  0.1847  -17.3  0.5082   83.1
 9.500  0.8289   60.7   0.975  -38.5  0.1859  -20.8  0.5634   79.0
10.000  0.8656   57.5   0.884  -43.4  0.1870  -24.5  0.6100   75.5
!
!  f       Fmin   Gammaopt  rn/50
! GHz       dB    MAG  ANG    -
 0.900      1.51  0.26 -155   0.13
 1.800      1.78  0.33 -142   0.14
 2.400      1.96  0.30 -136   0.18
 3.000      1.98  0.38 -127   0.20
 4.000      2.11  0.47 -111   0.31
 5.000      2.57  0.53  -94   0.51
 6.000      3.00  0.57  -82   0.74
!
! (c) 2009  Infineon Technologies AG, Munich