! Infineon Technologies  Discrete & RF Semiconductors
! BFP420
!
! VCE =  1.0 V,  IC =  1.2 mA
! Common Emitter S-Parameters:                            Nov 2009
# GHz  S  MA  R  50
!  f         S11            S21            S12            S22
! GHz     MAG   ANG      MAG   ANG      MAG   ANG      MAG   ANG
 0.010  0.9610   -1.2   4.342  179.4  0.0014   87.5  0.9952   -0.1
 0.020  0.9539   -1.4   4.205  179.4  0.0025   87.7  0.9958   -0.8
 0.050  0.9549   -3.4   4.236  177.3  0.0062   87.9  0.9957   -2.1
 0.100  0.9542   -6.7   4.264  174.6  0.0124   86.1  0.9943   -4.3
 0.150  0.9521  -10.1   4.265  171.8  0.0187   83.9  0.9914   -6.5
 0.200  0.9518  -13.4   4.255  169.0  0.0248   81.8  0.9871   -8.6
 0.250  0.9476  -16.9   4.228  166.1  0.0310   79.6  0.9823  -10.7
 0.300  0.9450  -20.2   4.221  163.4  0.0371   77.6  0.9759  -12.8
 0.350  0.9402  -23.6   4.199  160.7  0.0431   75.4  0.9688  -14.9
 0.400  0.9371  -26.9   4.165  158.0  0.0490   73.3  0.9603  -16.9
 0.450  0.9312  -30.3   4.136  155.3  0.0548   71.2  0.9517  -18.9
 0.500  0.9261  -33.6   4.098  152.6  0.0605   69.2  0.9413  -20.9
 0.600  0.9145  -40.3   4.015  147.3  0.0714   65.1  0.9199  -24.8
 0.700  0.9016  -46.8   3.927  142.2  0.0816   61.0  0.8957  -28.6
 0.800  0.8877  -53.2   3.816  137.3  0.0912   57.2  0.8705  -32.1
 0.900  0.8727  -59.5   3.710  132.5  0.1000   53.4  0.8440  -35.5
 1.000  0.8583  -65.8   3.601  128.0  0.1083   49.9  0.8170  -38.8
 1.100  0.8448  -71.8   3.491  123.6  0.1157   46.5  0.7907  -41.8
 1.200  0.8306  -77.9   3.380  119.3  0.1227   43.1  0.7635  -44.9
 1.300  0.8173  -83.7   3.272  115.3  0.1290   40.0  0.7378  -47.7
 1.400  0.8039  -89.5   3.168  111.2  0.1346   36.8  0.7122  -50.4
 1.500  0.7921  -95.0   3.069  107.5  0.1398   33.9  0.6871  -53.0
 1.600  0.7808 -100.4   2.970  103.7  0.1440   31.0  0.6630  -55.4
 1.700  0.7679 -105.8   2.879  100.2  0.1484   28.3  0.6405  -57.8
 1.800  0.7583 -110.8   2.780   96.7  0.1518   25.6  0.6187  -60.0
 1.900  0.7484 -116.2   2.696   93.3  0.1551   23.1  0.5965  -62.3
 2.000  0.7376 -120.8   2.608   90.2  0.1578   20.7  0.5770  -64.3
 2.200  0.7202 -130.6   2.456   83.8  0.1624   16.0  0.5378  -68.4
 2.400  0.7055 -140.0   2.309   77.8  0.1657   11.4  0.5014  -72.4
 2.600  0.6965 -149.3   2.178   72.0  0.1675    7.2  0.4675  -76.3
 2.800  0.6873 -157.8   2.053   66.6  0.1681    3.4  0.4371  -80.1
 3.000  0.6838 -165.9   1.943   61.4  0.1680   -0.2  0.4098  -83.7
 3.500  0.6838  175.0   1.702   48.9  0.1649   -8.3  0.3509  -93.7
 4.000  0.6950  158.9   1.503   37.4  0.1594  -14.8  0.3079 -104.6
 4.500  0.7061  145.9   1.326   26.7  0.1520  -20.5  0.2804 -116.5
 5.000  0.7115  135.6   1.177   17.6  0.1432  -24.5  0.2636 -128.0
 5.500  0.7184  126.4   1.059    9.1  0.1341  -27.3  0.2532 -139.7
 6.000  0.7337  117.8   0.966    1.2  0.1263  -28.5  0.2503 -152.2
 6.500  0.7518  110.1   0.892   -6.8  0.1217  -28.8  0.2535 -164.6
 7.000  0.7670  103.0   0.827  -14.8  0.1196  -28.6  0.2593 -176.9
 7.500  0.7770   95.6   0.767  -22.5  0.1197  -28.8  0.2715  170.5
 8.000  0.7844   87.5   0.704  -30.4  0.1198  -29.8  0.2883  157.2
 8.500  0.7902   79.3   0.639  -37.5  0.1183  -30.6  0.3080  142.9
 9.000  0.8158   72.2   0.584  -43.7  0.1179  -30.2  0.3482  129.3
 9.500  0.8639   66.8   0.539  -49.3  0.1199  -29.5  0.4125  119.3
10.000  0.9005   62.8   0.484  -55.0  0.1244  -29.6  0.4844  112.4
!
!  f       Fmin   Gammaopt  rn/50
! GHz       dB    MAG  ANG    -
 0.900      0.53  0.62   33   0.31
 1.800      1.10  0.40   77   0.24
 2.400      1.23  0.41  100   0.20
 3.000      1.51  0.41  132   0.14
 4.000      1.80  0.44 -175   0.09
 5.000      2.23  0.45 -132   0.38
 6.000      3.18  0.57 -116   0.44
!
! (c) 2009  Infineon Technologies AG, Munich