! Infineon Technologies  Discrete & RF Semiconductors
! BFP420
!
! VCE =  1.5 V,  IC =  8.0 mA
! Common Emitter S-Parameters:                            Nov 2009
# GHz  S  MA  R  50
!  f         S11            S21            S12            S22
! GHz     MAG   ANG      MAG   ANG      MAG   ANG      MAG   ANG
 0.010  0.7497   -2.2  23.056  179.3  0.0008   96.7  0.9732    0.4
 0.020  0.7527   -3.5  22.537  177.8  0.0020   89.2  0.9791   -1.9
 0.050  0.7470   -8.2  22.548  174.1  0.0049   86.7  0.9783   -5.0
 0.100  0.7466  -16.7  22.461  168.5  0.0099   81.8  0.9696  -10.1
 0.150  0.7364  -24.8  22.065  162.8  0.0147   78.4  0.9544  -15.1
 0.200  0.7266  -32.7  21.566  157.4  0.0192   74.5  0.9335  -19.9
 0.250  0.7117  -40.5  20.886  152.0  0.0234   70.9  0.9092  -24.4
 0.300  0.6982  -48.1  20.256  147.1  0.0273   67.6  0.8809  -28.8
 0.350  0.6826  -55.3  19.530  142.4  0.0308   64.4  0.8509  -32.9
 0.400  0.6685  -62.1  18.767  137.9  0.0340   61.6  0.8198  -36.8
 0.450  0.6524  -68.7  18.000  133.8  0.0370   59.0  0.7882  -40.4
 0.500  0.6372  -74.9  17.226  129.8  0.0396   56.7  0.7567  -43.8
 0.600  0.6111  -86.6  15.773  122.6  0.0442   52.6  0.6966  -50.0
 0.700  0.5879  -97.1  14.414  116.4  0.0479   49.3  0.6409  -55.5
 0.800  0.5693 -106.4  13.186  110.8  0.0511   46.6  0.5910  -60.3
 0.900  0.5544 -114.9  12.113  105.9  0.0538   44.4  0.5464  -64.7
 1.000  0.5429 -122.8  11.166  101.4  0.0563   42.6  0.5063  -68.8
 1.100  0.5336 -129.8  10.317   97.5  0.0585   41.2  0.4713  -72.4
 1.200  0.5273 -136.3   9.571   93.7  0.0606   40.0  0.4389  -76.2
 1.300  0.5214 -142.3   8.917   90.4  0.0626   38.9  0.4111  -79.5
 1.400  0.5185 -147.8   8.329   87.2  0.0645   38.0  0.3857  -82.8
 1.500  0.5147 -152.8   7.815   84.3  0.0663   37.3  0.3624  -85.9
 1.600  0.5139 -157.6   7.348   81.4  0.0681   36.6  0.3422  -89.0
 1.700  0.5121 -162.2   6.934   78.8  0.0699   35.9  0.3232  -92.0
 1.800  0.5109 -166.2   6.547   76.3  0.0717   35.3  0.3064  -94.9
 1.900  0.5111 -170.5   6.204   73.9  0.0735   34.7  0.2903  -98.2
 2.000  0.5098 -174.0   5.896   71.6  0.0753   34.2  0.2761 -100.9
 2.200  0.5102  178.5   5.356   67.1  0.0788   33.1  0.2502 -107.3
 2.400  0.5137  171.9   4.898   62.9  0.0823   32.0  0.2283 -114.2
 2.600  0.5216  165.5   4.506   58.9  0.0857   30.8  0.2102 -121.6
 2.800  0.5279  160.0   4.165   55.1  0.0891   29.8  0.1954 -129.2
 3.000  0.5368  154.8   3.873   51.5  0.0926   28.7  0.1839 -137.0
 3.500  0.5640  142.5   3.278   42.7  0.1010   25.7  0.1707 -158.7
 4.000  0.5918  132.1   2.826   34.3  0.1096   22.4  0.1757 -178.2
 4.500  0.6120  123.8   2.461   26.4  0.1173   18.9  0.1914  166.5
 5.000  0.6235  117.3   2.172   19.5  0.1247   15.6  0.2060  155.0
 5.500  0.6375  110.8   1.948   12.8  0.1318   12.3  0.2234  145.1
 6.000  0.6566  104.5   1.771    6.2  0.1391    9.0  0.2438  136.1
 6.500  0.6780   98.9   1.625   -0.6  0.1471    5.1  0.2637  128.1
 7.000  0.6933   93.2   1.502   -7.7  0.1557    1.0  0.2795  120.2
 7.500  0.7053   87.3   1.394  -14.7  0.1638   -3.9  0.3014  112.9
 8.000  0.7172   80.6   1.277  -21.9  0.1686   -9.4  0.3285  105.5
 8.500  0.7330   73.6   1.158  -28.6  0.1689  -14.3  0.3616   97.3
 9.000  0.7653   67.3   1.058  -34.2  0.1690  -17.8  0.4094   90.5
 9.500  0.8167   62.7   0.984  -39.5  0.1704  -20.9  0.4677   86.0
10.000  0.8561   59.4   0.891  -44.9  0.1724  -24.3  0.5193   82.5
!
!  f       Fmin   Gammaopt  rn/50
! GHz       dB    MAG  ANG    -
 0.900      0.79  0.08   30   0.13
 1.800      1.14  0.06  171   0.12
 2.400      1.24  0.10  160   0.13
 3.000      1.32  0.17 -165   0.12
 4.000      1.46  0.32 -132   0.14
 5.000      1.85  0.39 -110   0.25
 6.000      2.30  0.46  -95   0.37
!
! (c) 2009  Infineon Technologies AG, Munich