! Infineon Technologies  Discrete & RF Semiconductors
! BFP420
!
! VCE =  1.0 V,  IC =  6.0 mA
! Common Emitter S-Parameters:                            Nov 2009
# GHz  S  MA  R  50
!  f         S11            S21            S12            S22
! GHz     MAG   ANG      MAG   ANG      MAG   ANG      MAG   ANG
 0.010  0.8026   -2.9  18.314  179.4  0.0009  119.5  0.9763    0.0
 0.020  0.8018   -3.2  17.950  178.2  0.0022   89.4  0.9812   -1.8
 0.050  0.7993   -7.3  17.993  174.7  0.0057   87.4  0.9797   -4.7
 0.100  0.7975  -14.9  17.975  169.5  0.0115   82.3  0.9730   -9.6
 0.150  0.7890  -22.3  17.742  164.3  0.0170   78.8  0.9605  -14.3
 0.200  0.7799  -29.6  17.412  159.3  0.0223   75.0  0.9430  -18.9
 0.250  0.7661  -36.7  16.956  154.2  0.0273   71.6  0.9226  -23.3
 0.300  0.7536  -43.6  16.545  149.6  0.0321   68.2  0.8983  -27.7
 0.350  0.7389  -50.3  16.047  145.2  0.0364   65.0  0.8720  -31.7
 0.400  0.7271  -56.7  15.515  140.8  0.0404   62.1  0.8440  -35.6
 0.450  0.7110  -62.8  14.969  136.8  0.0441   59.3  0.8156  -39.3
 0.500  0.6964  -68.8  14.410  132.9  0.0474   56.7  0.7863  -42.8
 0.600  0.6687  -80.0  13.328  125.7  0.0532   52.1  0.7294  -49.3
 0.700  0.6439  -90.3  12.295  119.4  0.0579   48.3  0.6753  -55.1
 0.800  0.6228  -99.5  11.326  113.7  0.0618   45.1  0.6255  -60.3
 0.900  0.6056 -108.1  10.470  108.6  0.0651   42.3  0.5803  -65.0
 1.000  0.5914 -116.1   9.701  104.1  0.0680   40.0  0.5389  -69.6
 1.100  0.5792 -123.1   9.005  100.0  0.0705   38.0  0.5026  -73.6
 1.200  0.5705 -129.9   8.384   96.0  0.0727   36.3  0.4688  -77.6
 1.300  0.5637 -136.0   7.834   92.5  0.0748   34.8  0.4394  -81.2
 1.400  0.5585 -141.8   7.338   89.2  0.0767   33.4  0.4126  -84.9
 1.500  0.5539 -147.0   6.903   86.1  0.0785   32.3  0.3882  -88.3
 1.600  0.5509 -152.0   6.501   83.1  0.0801   31.3  0.3666  -91.6
 1.700  0.5474 -156.9   6.149   80.4  0.0818   30.4  0.3467  -94.9
 1.800  0.5453 -161.1   5.816   77.8  0.0834   29.5  0.3291  -97.9
 1.900  0.5446 -165.6   5.517   75.2  0.0850   28.7  0.3122 -101.5
 2.000  0.5423 -169.4   5.250   72.8  0.0865   28.0  0.2971 -104.3
 2.200  0.5411 -177.2   4.780   68.1  0.0895   26.5  0.2704 -111.1
 2.400  0.5428  175.7   4.378   63.7  0.0924   25.2  0.2478 -118.2
 2.600  0.5495  169.1   4.034   59.4  0.0951   23.9  0.2293 -125.7
 2.800  0.5544  163.1   3.733   55.5  0.0978   22.9  0.2146 -133.2
 3.000  0.5626  157.6   3.473   51.7  0.1007   21.7  0.2032 -140.9
 3.500  0.5883  144.8   2.945   42.5  0.1074   18.8  0.1907 -161.6
 4.000  0.6142  133.8   2.541   33.7  0.1145   15.9  0.1960 -179.9
 4.500  0.6331  125.2   2.214   25.6  0.1209   12.8  0.2111  165.8
 5.000  0.6438  118.3   1.954   18.5  0.1270   10.0  0.2249  154.8
 5.500  0.6565  111.7   1.754   11.6  0.1331    7.1  0.2416  145.4
 6.000  0.6748  105.2   1.595    4.8  0.1397    4.2  0.2618  136.7
 6.500  0.6956   99.4   1.464   -2.2  0.1470    0.8  0.2813  128.8
 7.000  0.7110   93.6   1.354   -9.2  0.1551   -2.9  0.2973  121.1
 7.500  0.7214   87.6   1.257  -16.3  0.1628   -7.4  0.3194  113.9
 8.000  0.7326   80.8   1.151  -23.7  0.1673  -12.8  0.3461  106.4
 8.500  0.7465   73.7   1.043  -30.4  0.1673  -17.4  0.3777   98.2
 9.000  0.7769   67.4   0.954  -36.1  0.1670  -20.6  0.4245   91.3
 9.500  0.8274   62.7   0.886  -41.3  0.1684  -23.5  0.4825   86.8
10.000  0.8646   59.3   0.802  -46.7  0.1704  -26.6  0.5344   83.3
!
!  f       Fmin   Gammaopt  rn/50
! GHz       dB    MAG  ANG    -
 0.900      0.70  0.16   29   0.14
 1.800      1.08  0.06  113   0.12
 2.400      1.17  0.11  132   0.13
 3.000      1.26  0.17  176   0.11
 4.000      1.43  0.31 -139   0.13
 5.000      1.82  0.38 -115   0.24
 6.000      2.30  0.43  -99   0.37
!
! (c) 2009  Infineon Technologies AG, Munich