! Infineon Technologies  Discrete & RF Semiconductors
! BFP420
!
! VCE =  1.5 V,  IC =  2.5 mA
! Common Emitter S-Parameters:                            Nov 2009
# GHz  S  MA  R  50
!  f         S11            S21            S12            S22
! GHz     MAG   ANG      MAG   ANG      MAG   ANG      MAG   ANG
 0.010  0.9172   -1.2   8.645  179.3  0.0011   84.4  0.9913    0.0
 0.020  0.9089   -1.8   8.417  179.0  0.0022   86.2  0.9930   -1.0
 0.050  0.9106   -4.5   8.460  176.6  0.0054   86.7  0.9931   -2.6
 0.100  0.9078   -8.7   8.499  173.3  0.0109   85.7  0.9907   -5.4
 0.150  0.9056  -13.1   8.479  169.9  0.0164   82.9  0.9864   -8.0
 0.200  0.9029  -17.5   8.433  166.6  0.0217   80.2  0.9802  -10.7
 0.250  0.8956  -21.8   8.348  163.1  0.0270   77.8  0.9727  -13.3
 0.300  0.8906  -26.2   8.294  159.9  0.0322   75.4  0.9632  -15.9
 0.350  0.8831  -30.5   8.204  156.7  0.0372   72.8  0.9525  -18.5
 0.400  0.8768  -34.7   8.105  153.5  0.0421   70.4  0.9399  -21.0
 0.450  0.8676  -38.9   7.990  150.3  0.0469   68.1  0.9274  -23.4
 0.500  0.8591  -43.1   7.865  147.2  0.0514   65.8  0.9125  -25.9
 0.600  0.8398  -51.3   7.600  141.2  0.0598   61.3  0.8818  -30.6
 0.700  0.8190  -59.3   7.317  135.5  0.0675   57.1  0.8482  -34.9
 0.800  0.7984  -66.8   7.000  130.1  0.0743   53.2  0.8141  -39.0
 0.900  0.7787  -74.2   6.703  125.0  0.0804   49.5  0.7794  -42.9
 1.000  0.7606  -81.4   6.402  120.2  0.0859   46.1  0.7449  -46.5
 1.100  0.7422  -88.2   6.108  115.7  0.0906   42.9  0.7120  -49.9
 1.200  0.7247  -94.8   5.831  111.3  0.0949   39.9  0.6792  -53.2
 1.300  0.7105 -101.2   5.567  107.3  0.0987   37.1  0.6488  -56.2
 1.400  0.6963 -107.4   5.316  103.4  0.1019   34.5  0.6192  -59.2
 1.500  0.6842 -113.1   5.083   99.9  0.1049   32.1  0.5913  -61.8
 1.600  0.6732 -118.7   4.860   96.2  0.1072   29.8  0.5648  -64.4
 1.700  0.6619 -124.3   4.658   92.9  0.1095   27.7  0.5400  -66.9
 1.800  0.6529 -129.3   4.453   89.7  0.1114   25.7  0.5171  -69.1
 1.900  0.6449 -134.6   4.272   86.6  0.1132   23.7  0.4940  -71.6
 2.000  0.6362 -139.1   4.098   83.7  0.1147   22.0  0.4736  -73.6
 2.200  0.6231 -148.7   3.793   78.0  0.1172   18.7  0.4340  -77.9
 2.400  0.6142 -157.7   3.516   72.6  0.1190   15.6  0.3978  -82.3
 2.600  0.6113 -166.3   3.274   67.6  0.1201   12.8  0.3653  -86.5
 2.800  0.6077 -174.1   3.052   62.9  0.1208   10.4  0.3361  -90.7
 3.000  0.6090  178.6   2.862   58.3  0.1213    8.2  0.3101  -94.8
 3.500  0.6211  161.9   2.460   47.4  0.1215    3.5  0.2558 -107.0
 4.000  0.6398  147.9   2.143   37.4  0.1217   -0.1  0.2187 -120.8
 4.500  0.6563  136.7   1.876   28.0  0.1213   -3.1  0.1981 -135.9
 5.000  0.6648  128.0   1.658   19.8  0.1210   -5.2  0.1878 -149.6
 5.500  0.6754  119.9   1.488   12.2  0.1209   -6.8  0.1849 -163.5
 6.000  0.6927  112.3   1.355    4.8  0.1220   -7.8  0.1889 -177.5
 6.500  0.7128  105.4   1.247   -2.7  0.1253   -9.1  0.1975  170.0
 7.000  0.7275   98.9   1.154  -10.3  0.1302  -10.6  0.2072  158.5
 7.500  0.7391   92.3   1.072  -17.7  0.1359  -13.2  0.2247  147.2
 8.000  0.7482   84.7   0.983  -25.5  0.1399  -16.7  0.2479  135.4
 8.500  0.7591   77.0   0.893  -32.5  0.1406  -20.0  0.2761  122.8
 9.000  0.7883   70.2   0.817  -38.7  0.1410  -22.1  0.3224  111.7
 9.500  0.8379   65.2   0.757  -44.4  0.1430  -23.7  0.3856  104.6
10.000  0.8769   61.5   0.684  -50.2  0.1465  -25.7  0.4493   99.9
!
!  f       Fmin   Gammaopt  rn/50
! GHz       dB    MAG  ANG    -
 0.900      0.55  0.41   33   0.20
 1.800      1.02  0.24   78   0.16
 2.400      1.11  0.26  103   0.15
 3.000      1.28  0.27  140   0.11
 4.000      1.50  0.34 -163   0.10
 5.000      1.85  0.40 -130   0.26
 6.000      2.56  0.50 -109   0.35
!
! (c) 2009  Infineon Technologies AG, Munich