! Infineon Technologies  Discrete & RF Semiconductors
! BFP420
!
! VCE =  1.0 V,  IC =  5.0 mA
! Common Emitter S-Parameters:                            Nov 2009
# GHz  S  MA  R  50
!  f         S11            S21            S12            S22
! GHz     MAG   ANG      MAG   ANG      MAG   ANG      MAG   ANG
 0.010  0.8336   -1.8  15.805  179.3  0.0014   76.9  0.9795    0.1
 0.020  0.8290   -2.7  15.459  178.4  0.0024   87.8  0.9845   -1.6
 0.050  0.8274   -6.8  15.505  175.2  0.0057   85.4  0.9832   -4.3
 0.100  0.8275  -13.5  15.522  170.4  0.0116   83.1  0.9776   -8.6
 0.150  0.8186  -20.1  15.362  165.6  0.0173   79.6  0.9674  -12.9
 0.200  0.8115  -26.6  15.137  161.0  0.0229   76.2  0.9531  -17.1
 0.250  0.7998  -33.0  14.805  156.3  0.0281   72.9  0.9359  -21.1
 0.300  0.7891  -39.4  14.519  151.9  0.0331   69.7  0.9153  -25.1
 0.350  0.7763  -45.5  14.151  147.8  0.0378   66.6  0.8929  -28.9
 0.400  0.7635  -51.4  13.753  143.6  0.0420   63.6  0.8684  -32.5
 0.450  0.7482  -57.3  13.346  139.7  0.0461   60.9  0.8433  -36.0
 0.500  0.7350  -62.8  12.908  135.9  0.0498   58.3  0.8170  -39.3
 0.600  0.7076  -73.5  12.064  128.9  0.0563   53.5  0.7647  -45.6
 0.700  0.6817  -83.5  11.228  122.6  0.0617   49.4  0.7132  -51.2
 0.800  0.6593  -92.4  10.418  116.9  0.0662   45.9  0.6649  -56.3
 0.900  0.6393 -100.9   9.699  111.7  0.0700   42.9  0.6202  -60.9
 1.000  0.6229 -108.9   9.037  107.0  0.0733   40.2  0.5787  -65.4
 1.100  0.6090 -116.1   8.426  102.8  0.0762   37.9  0.5416  -69.3
 1.200  0.5982 -123.0   7.878   98.7  0.0786   35.7  0.5066  -73.3
 1.300  0.5884 -129.2   7.385   95.1  0.0809   34.0  0.4758  -76.8
 1.400  0.5809 -135.3   6.939   91.5  0.0828   32.3  0.4477  -80.3
 1.500  0.5746 -140.7   6.546   88.4  0.0847   30.9  0.4216  -83.5
 1.600  0.5704 -145.8   6.176   85.3  0.0863   29.6  0.3984  -86.7
 1.700  0.5658 -151.0   5.853   82.4  0.0879   28.4  0.3769  -89.8
 1.800  0.5623 -155.4   5.544   79.7  0.0894   27.4  0.3576  -92.7
 1.900  0.5603 -160.1   5.269   77.0  0.0909   26.3  0.3392  -96.1
 2.000  0.5560 -164.1   5.019   74.5  0.0923   25.5  0.3228  -98.7
 2.200  0.5539 -172.3   4.579   69.6  0.0949   23.7  0.2928 -105.0
 2.400  0.5545 -179.9   4.201   65.0  0.0974   22.1  0.2669 -111.5
 2.600  0.5603  173.1   3.877   60.6  0.0996   20.6  0.2452 -118.5
 2.800  0.5633  166.9   3.592   56.6  0.1019   19.4  0.2272 -125.5
 3.000  0.5707  161.0   3.345   52.6  0.1042   18.2  0.2125 -132.6
 3.500  0.5942  147.5   2.841   43.1  0.1096   15.3  0.1916 -152.7
 4.000  0.6192  136.0   2.455   34.1  0.1154   12.5  0.1900 -171.7
 4.500  0.6376  127.0   2.140   25.8  0.1207    9.6  0.2009  172.8
 5.000  0.6480  119.9   1.889   18.5  0.1258    7.1  0.2125  161.0
 5.500  0.6607  112.9   1.695   11.5  0.1310    4.5  0.2276  150.8
 6.000  0.6786  106.3   1.542    4.6  0.1368    2.0  0.2465  141.4
 6.500  0.6988  100.3   1.415   -2.4  0.1436   -1.1  0.2653  133.1
 7.000  0.7145   94.4   1.310   -9.6  0.1513   -4.5  0.2812  125.0
 7.500  0.7250   88.3   1.216  -16.8  0.1587   -8.8  0.3035  117.4
 8.000  0.7358   81.4   1.114  -24.2  0.1632  -13.8  0.3304  109.5
 8.500  0.7493   74.1   1.010  -31.0  0.1632  -18.3  0.3621  100.9
 9.000  0.7799   67.8   0.923  -36.7  0.1630  -21.3  0.4091   93.6
 9.500  0.8295   63.1   0.857  -42.1  0.1645  -23.9  0.4679   88.9
10.000  0.8674   59.6   0.776  -47.6  0.1667  -26.9  0.5215   85.3
!
!  f       Fmin   Gammaopt  rn/50
! GHz       dB    MAG  ANG    -
 0.900      0.66  0.21   31   0.15
 1.800      1.05  0.09   93   0.13
 2.400      1.14  0.14  119   0.13
 3.000      1.24  0.17  165   0.11
 4.000      1.41  0.31 -145   0.12
 5.000      1.85  0.38 -119   0.21
 6.000      2.30  0.45 -101   0.36
!
! (c) 2009  Infineon Technologies AG, Munich