! Infineon Technologies  Discrete & RF Semiconductors
! BFP420
!
! VCE =  1.5 V,  IC =  15 mA
! Common Emitter S-Parameters:                            Nov 2009
# GHz  S  MA  R  50
!  f         S11            S21            S12            S22
! GHz     MAG   ANG      MAG   ANG      MAG   ANG      MAG   ANG
 0.010  0.6086   -2.8  35.325  179.2  0.0009   81.9  0.9520    1.1
 0.020  0.6046   -4.9  34.594  177.0  0.0019   87.1  0.9614   -2.4
 0.050  0.5963  -12.4  34.475  172.1  0.0047   86.7  0.9604   -6.8
 0.100  0.5963  -24.8  33.954  164.4  0.0090   80.9  0.9440  -13.9
 0.150  0.5853  -36.6  32.783  157.0  0.0130   75.2  0.9151  -20.7
 0.200  0.5758  -47.8  31.378  150.2  0.0168   71.0  0.8783  -26.9
 0.250  0.5590  -58.3  29.683  143.7  0.0200   67.0  0.8375  -32.6
 0.300  0.5470  -68.0  28.100  137.9  0.0230   63.7  0.7937  -37.9
 0.350  0.5357  -77.0  26.453  132.7  0.0255   60.9  0.7505  -42.6
 0.400  0.5249  -85.1  24.867  127.9  0.0277   58.4  0.7086  -46.9
 0.450  0.5145  -92.7  23.347  123.6  0.0298   56.4  0.6690  -50.8
 0.500  0.5054  -99.8  21.925  119.7  0.0315   54.7  0.6316  -54.4
 0.600  0.4921 -112.0  19.423  112.7  0.0346   52.1  0.5659  -60.7
 0.700  0.4829 -122.4  17.301  106.9  0.0373   50.4  0.5102  -66.1
 0.800  0.4763 -131.2  15.512  101.9  0.0398   49.2  0.4634  -70.8
 0.900  0.4730 -138.9  14.030   97.5  0.0421   48.3  0.4239  -75.2
 1.000  0.4712 -145.9  12.762   93.6  0.0444   47.8  0.3896  -79.4
 1.100  0.4703 -151.8  11.678   90.2  0.0466   47.3  0.3609  -83.2
 1.200  0.4712 -157.2  10.741   86.9  0.0488   46.9  0.3352  -87.1
 1.300  0.4714 -162.1   9.939   84.0  0.0511   46.6  0.3133  -90.7
 1.400  0.4733 -166.5   9.236   81.3  0.0533   46.3  0.2942  -94.5
 1.500  0.4741 -170.6   8.624   78.7  0.0556   46.0  0.2768  -98.0
 1.600  0.4768 -174.4   8.075   76.3  0.0578   45.7  0.2622 -101.5
 1.700  0.4782 -178.2   7.593   74.0  0.0601   45.3  0.2485 -105.1
 1.800  0.4799  178.7   7.153   71.7  0.0625   44.9  0.2365 -108.5
 1.900  0.4835  175.3   6.760   69.6  0.0647   44.5  0.2258 -112.6
 2.000  0.4831  172.3   6.413   67.6  0.0671   44.0  0.2157 -115.8
 2.200  0.4877  166.3   5.804   63.6  0.0717   43.0  0.1993 -123.7
 2.400  0.4944  160.9   5.293   59.8  0.0763   41.8  0.1869 -132.2
 2.600  0.5043  155.7   4.858   56.1  0.0809   40.5  0.1781 -141.0
 2.800  0.5127  151.0   4.484   52.7  0.0854   39.2  0.1725 -149.8
 3.000  0.5232  146.6   4.164   49.3  0.0899   37.8  0.1698 -158.3
 3.500  0.5529  136.2   3.512   41.1  0.1007   33.9  0.1772 -179.1
 4.000  0.5815  127.0   3.023   33.2  0.1112   29.7  0.1966  164.6
 4.500  0.6034  119.7   2.631   25.8  0.1206   25.2  0.2202  152.6
 5.000  0.6156  113.9   2.322   19.2  0.1294   21.2  0.2389  143.3
 5.500  0.6306  107.9   2.082   12.9  0.1377   17.1  0.2591  135.3
 6.000  0.6500  102.1   1.893    6.5  0.1462   13.0  0.2821  127.7
 6.500  0.6716   96.8   1.735   -0.2  0.1549    8.5  0.3032  120.6
 7.000  0.6873   91.4   1.604   -6.9  0.1640    3.8  0.3192  113.3
 7.500  0.6983   85.7   1.487  -13.8  0.1723   -1.6  0.3407  106.8
 8.000  0.7109   79.3   1.363  -20.9  0.1771   -7.6  0.3674  100.1
 8.500  0.7280   72.5   1.234  -27.4  0.1770  -12.8  0.4001   92.7
 9.000  0.7619   66.4   1.127  -32.9  0.1768  -16.6  0.4473   86.4
 9.500  0.8131   61.9   1.048  -38.0  0.1782  -20.0  0.5046   82.2
10.000  0.8527   58.7   0.950  -43.2  0.1798  -23.6  0.5537   78.7
!
!  f       Fmin   Gammaopt  rn/50
! GHz       dB    MAG  ANG    -
 0.900      1.06  0.09 -152   0.13
 1.800      1.36  0.18 -147   0.12
 2.400      1.49  0.17 -148   0.14
 3.000      1.53  0.25 -138   0.14
 4.000      1.67  0.38 -119   0.20
 5.000      2.14  0.44 -103   0.32
 6.000      2.48  0.50  -88   0.47
!
! (c) 2009  Infineon Technologies AG, Munich