! Infineon Technologies  Discrete & RF Semiconductors
! BFP420
!
! VCE =  1.5 V,  IC =  1.0 mA
! Common Emitter S-Parameters:                            Nov 2009
# GHz  S  MA  R  50
!  f         S11            S21            S12            S22
! GHz     MAG   ANG      MAG   ANG      MAG   ANG      MAG   ANG
 0.010  0.9673   -1.3   3.645  179.5  0.0008   64.3  0.9972   -0.1
 0.020  0.9630   -1.3   3.527  179.4  0.0023   84.5  0.9969   -0.6
 0.050  0.9589   -3.0   3.549  177.4  0.0054   87.7  0.9969   -1.8
 0.100  0.9612   -6.1   3.576  175.1  0.0112   86.1  0.9957   -3.7
 0.150  0.9602   -9.1   3.580  172.5  0.0169   84.7  0.9934   -5.5
 0.200  0.9594  -12.2   3.574  170.0  0.0224   82.7  0.9903   -7.4
 0.250  0.9560  -15.3   3.556  167.2  0.0281   80.8  0.9865   -9.2
 0.300  0.9548  -18.4   3.556  164.8  0.0336   78.8  0.9816  -11.0
 0.350  0.9517  -21.5   3.543  162.3  0.0391   76.9  0.9759  -12.8
 0.400  0.9489  -24.5   3.520  159.8  0.0445   74.9  0.9693  -14.5
 0.450  0.9443  -27.6   3.503  157.2  0.0499   73.0  0.9625  -16.3
 0.500  0.9403  -30.6   3.478  154.7  0.0552   71.1  0.9543  -18.1
 0.600  0.9315  -36.7   3.425  149.7  0.0653   67.3  0.9370  -21.5
 0.700  0.9195  -42.8   3.367  144.9  0.0751   63.5  0.9177  -24.8
 0.800  0.9079  -48.8   3.288  140.3  0.0843   59.9  0.8966  -28.0
 0.900  0.8956  -54.7   3.216  135.7  0.0930   56.3  0.8747  -31.0
 1.000  0.8831  -60.6   3.140  131.3  0.1013   52.9  0.8519  -34.0
 1.100  0.8709  -66.3   3.057  127.1  0.1088   49.6  0.8294  -36.7
 1.200  0.8584  -72.0   2.977  122.8  0.1160   46.3  0.8056  -39.5
 1.300  0.8464  -77.6   2.896  118.9  0.1225   43.2  0.7827  -42.1
 1.400  0.8340  -83.2   2.819  114.9  0.1285   40.0  0.7597  -44.7
 1.500  0.8220  -88.5   2.742  111.2  0.1340   37.1  0.7371  -47.0
 1.600  0.8116  -93.8   2.667  107.4  0.1388   34.2  0.7151  -49.3
 1.700  0.7992  -99.0   2.595  103.9  0.1435   31.4  0.6940  -51.5
 1.800  0.7891 -104.0   2.515  100.3  0.1473   28.7  0.6735  -53.5
 1.900  0.7788 -109.2   2.452   96.9  0.1511   26.0  0.6527  -55.7
 2.000  0.7685 -113.8   2.379   93.7  0.1543   23.6  0.6338  -57.5
 2.200  0.7488 -123.5   2.252   87.2  0.1598   18.6  0.5959  -61.4
 2.400  0.7330 -133.1   2.133   81.1  0.1638   13.9  0.5602  -65.1
 2.600  0.7207 -142.4   2.020   75.2  0.1662    9.4  0.5268  -68.6
 2.800  0.7101 -151.1   1.911   69.6  0.1675    5.3  0.4964  -72.0
 3.000  0.7040 -159.5   1.816   64.2  0.1678    1.3  0.4686  -75.3
 3.500  0.6992 -179.4   1.603   51.3  0.1651   -7.5  0.4075  -84.0
 4.000  0.7073  163.7   1.424   39.5  0.1597  -14.6  0.3616  -93.4
 4.500  0.7170  149.9   1.261   28.5  0.1518  -20.9  0.3293 -103.8
 5.000  0.7213  139.0   1.121   19.0  0.1420  -25.5  0.3069 -114.0
 5.500  0.7271  129.3   1.009   10.4  0.1315  -28.9  0.2900 -124.6
 6.000  0.7408  120.3   0.921    2.2  0.1220  -30.2  0.2803 -136.0
 6.500  0.7595  112.2   0.850   -5.9  0.1158  -30.4  0.2769 -147.9
 7.000  0.7737  104.8   0.789  -13.9  0.1123  -29.8  0.2763 -160.1
 7.500  0.7845   97.2   0.733  -21.6  0.1113  -29.3  0.2809 -173.4
 8.000  0.7905   88.9   0.672  -29.6  0.1109  -29.4  0.2900  172.4
 8.500  0.7947   80.5   0.611  -36.7  0.1095  -29.4  0.3011  157.0
 9.000  0.8198   73.1   0.559  -43.0  0.1095  -28.3  0.3333  141.3
 9.500  0.8684   67.6   0.515  -48.6  0.1120  -27.0  0.3939  129.1
10.000  0.9057   63.4   0.463  -54.4  0.1175  -26.5  0.4669  120.6
!
!  f       Fmin   Gammaopt  rn/50
! GHz       dB    MAG  ANG    -
 0.900      0.53  0.67   34   0.35
 1.800      1.15  0.44   77   0.27
 2.400      1.28  0.44  100   0.22
 3.000      1.61  0.45  131   0.15
 4.000      1.90  0.47 -177   0.09
 5.000      2.32  0.44 -133   0.45
 6.000      3.43  0.60 -118   0.25
!
! (c) 2009  Infineon Technologies AG, Munich