! Infineon Technologies  Discrete & RF Semiconductors
! BFP420
!
! VCE =  1.5 V,  IC =  25 mA
! Common Emitter S-Parameters:                            Nov 2009
# GHz  S  MA  R  50
!  f         S11            S21            S12            S22
! GHz     MAG   ANG      MAG   ANG      MAG   ANG      MAG   ANG
 0.010  0.4595   -4.5  45.932  179.4  0.0013  102.7  0.9201    1.9
 0.020  0.4530   -7.2  45.121  176.3  0.0017   91.3  0.9375   -2.7
 0.050  0.4515  -18.4  44.837  170.4  0.0041   84.7  0.9380   -8.2
 0.100  0.4525  -35.1  43.602  160.9  0.0080   78.4  0.9138  -17.1
 0.150  0.4477  -50.7  41.331  152.0  0.0115   73.4  0.8711  -25.2
 0.200  0.4455  -65.2  38.706  144.2  0.0145   68.9  0.8198  -32.5
 0.250  0.4405  -77.9  35.811  137.1  0.0171   65.4  0.7663  -38.8
 0.300  0.4390  -89.1  33.188  131.0  0.0194   62.5  0.7125  -44.4
 0.350  0.4374  -98.9  30.657  125.7  0.0213   60.2  0.6626  -49.3
 0.400  0.4366 -107.3  28.342  120.9  0.0230   58.6  0.6169  -53.6
 0.450  0.4365 -114.8  26.234  116.7  0.0246   57.3  0.5753  -57.4
 0.500  0.4360 -121.5  24.343  113.0  0.0260   56.3  0.5380  -60.9
 0.600  0.4377 -132.7  21.147  106.5  0.0287   55.0  0.4751  -66.9
 0.700  0.4395 -141.8  18.580  101.3  0.0312   54.4  0.4247  -72.0
 0.800  0.4413 -149.3  16.496   96.7  0.0336   54.1  0.3837  -76.6
 0.900  0.4447 -155.6  14.803   92.8  0.0361   53.9  0.3500  -80.9
 1.000  0.4488 -161.2  13.385   89.3  0.0385   53.9  0.3215  -85.2
 1.100  0.4512 -166.0  12.192   86.2  0.0410   53.8  0.2977  -89.0
 1.200  0.4559 -170.4  11.180   83.2  0.0435   53.7  0.2771  -93.2
 1.300  0.4588 -174.3  10.312   80.6  0.0460   53.4  0.2596  -97.0
 1.400  0.4624 -177.9   9.561   78.1  0.0486   53.2  0.2447 -101.1
 1.500  0.4647  178.7   8.912   75.7  0.0512   52.9  0.2310 -104.9
 1.600  0.4688  175.8   8.331   73.5  0.0538   52.5  0.2200 -108.8
 1.700  0.4717  172.5   7.826   71.4  0.0564   52.0  0.2097 -112.8
 1.800  0.4733  170.0   7.364   69.3  0.0590   51.5  0.2007 -116.5
 1.900  0.4779  167.1   6.949   67.3  0.0616   51.0  0.1934 -121.0
 2.000  0.4783  164.6   6.590   65.4  0.0642   50.4  0.1858 -124.6
 2.200  0.4843  159.5   5.954   61.6  0.0694   49.0  0.1751 -133.2
 2.400  0.4924  154.6   5.425   58.1  0.0744   47.5  0.1682 -142.3
 2.600  0.5028  150.1   4.975   54.6  0.0794   45.9  0.1647 -151.5
 2.800  0.5113  146.0   4.590   51.3  0.0844   44.4  0.1639 -160.3
 3.000  0.5216  142.1   4.258   48.1  0.0893   42.7  0.1655 -168.6
 3.500  0.5539  132.7   3.591   40.1  0.1010   38.1  0.1817  172.2
 4.000  0.5824  124.3   3.088   32.6  0.1122   33.3  0.2063  157.9
 4.500  0.6042  117.4   2.687   25.3  0.1222   28.4  0.2324  147.3
 5.000  0.6164  112.0   2.372   18.9  0.1315   24.0  0.2524  139.0
 5.500  0.6306  106.3   2.128   12.7  0.1403   19.6  0.2737  131.6
 6.000  0.6507  100.7   1.934    6.4  0.1492   15.2  0.2976  124.6
 6.500  0.6723   95.6   1.772   -0.1  0.1581   10.3  0.3193  117.8
 7.000  0.6883   90.4   1.638   -6.8  0.1674    5.4  0.3354  110.8
 7.500  0.6996   84.8   1.518  -13.6  0.1759   -0.3  0.3566  104.5
 8.000  0.7114   78.6   1.390  -20.6  0.1806   -6.4  0.3831   98.0
 8.500  0.7289   71.8   1.259  -27.1  0.1803  -11.8  0.4156   90.9
 9.000  0.7628   65.9   1.149  -32.4  0.1801  -15.6  0.4626   85.0
 9.500  0.8142   61.5   1.069  -37.5  0.1814  -19.1  0.5197   80.8
10.000  0.8534   58.2   0.969  -42.6  0.1828  -22.9  0.5681   77.3
!
!  f       Fmin   Gammaopt  rn/50
! GHz       dB    MAG  ANG    -
 0.900      1.38  0.22 -154   0.13
 1.800      1.65  0.29 -143   0.13
 2.400      1.81  0.26 -138   0.17
 3.000      1.83  0.34 -129   0.18
 4.000      1.97  0.45 -112   0.27
 5.000      2.40  0.49  -95   0.44
 6.000      2.85  0.54  -84   0.65
!
! (c) 2009  Infineon Technologies AG, Munich