! Infineon Technologies  Discrete & RF Semiconductors
! BFP420
!
! VCE =  1.0 V,  IC =  0.5 mA
! Common Emitter S-Parameters:                            Nov 2009
# GHz  S  MA  R  50
!  f         S11            S21            S12            S22
! GHz     MAG   ANG      MAG   ANG      MAG   ANG      MAG   ANG
 0.010  0.9833   -1.5   2.013  179.4  0.0012   84.7  0.9981   -0.2
 0.020  0.9795   -1.0   1.963  179.6  0.0026   88.8  0.9978   -0.6
 0.050  0.9763   -2.7   1.975  177.5  0.0064   87.3  0.9978   -1.7
 0.100  0.9780   -5.4   1.986  175.4  0.0126   87.2  0.9968   -3.4
 0.150  0.9774   -8.1   1.988  172.9  0.0189   84.9  0.9946   -5.1
 0.200  0.9766  -10.7   1.987  170.5  0.0252   83.1  0.9916   -6.8
 0.250  0.9745  -13.4   1.978  167.9  0.0314   81.4  0.9880   -8.5
 0.300  0.9735  -16.2   1.978  165.5  0.0377   79.5  0.9833  -10.2
 0.350  0.9710  -18.8   1.976  163.2  0.0439   77.8  0.9781  -11.8
 0.400  0.9692  -21.5   1.965  160.8  0.0500   75.9  0.9721  -13.4
 0.450  0.9661  -24.3   1.958  158.4  0.0561   74.1  0.9659  -15.1
 0.500  0.9634  -26.9   1.949  155.9  0.0621   72.3  0.9584  -16.7
 0.600  0.9566  -32.4   1.926  151.2  0.0739   68.6  0.9432  -19.8
 0.700  0.9481  -37.8   1.902  146.5  0.0853   65.0  0.9257  -22.9
 0.800  0.9402  -43.1   1.870  142.0  0.0962   61.6  0.9074  -25.7
 0.900  0.9307  -48.5   1.838  137.5  0.1065   58.1  0.8879  -28.5
 1.000  0.9215  -53.8   1.806  133.3  0.1166   54.7  0.8678  -31.3
 1.100  0.9118  -59.0   1.771  129.2  0.1258   51.5  0.8480  -33.8
 1.200  0.9020  -64.3   1.737  124.9  0.1349   48.1  0.8275  -36.4
 1.300  0.8922  -69.4   1.699  121.0  0.1433   45.0  0.8078  -38.7
 1.400  0.8819  -74.6   1.666  116.9  0.1511   41.8  0.7877  -41.1
 1.500  0.8731  -79.6   1.632  113.2  0.1585   38.8  0.7679  -43.3
 1.600  0.8635  -84.7   1.599  109.3  0.1649   35.7  0.7485  -45.5
 1.700  0.8530  -89.6   1.567  105.6  0.1715   32.8  0.7303  -47.6
 1.800  0.8436  -94.4   1.528  102.0  0.1769   29.9  0.7124  -49.6
 1.900  0.8353  -99.5   1.500   98.5  0.1823   27.1  0.6935  -51.7
 2.000  0.8251 -103.9   1.466   95.1  0.1869   24.4  0.6770  -53.4
 2.200  0.8080 -113.5   1.408   88.2  0.1952   19.1  0.6428  -57.2
 2.400  0.7912 -122.9   1.348   81.6  0.2019   13.7  0.6111  -60.8
 2.600  0.7777 -132.2   1.292   75.2  0.2063    8.6  0.5803  -64.4
 2.800  0.7642 -141.0   1.235   69.1  0.2091    3.8  0.5525  -67.7
 3.000  0.7569 -149.6   1.185   63.3  0.2106   -0.9  0.5273  -71.0
 3.500  0.7469 -170.3   1.069   49.2  0.2089  -11.6  0.4706  -79.8
 4.000  0.7503  171.7   0.965   36.2  0.2021  -20.8  0.4277  -89.2
 4.500  0.7570  156.7   0.864   24.1  0.1912  -29.3  0.3986  -99.4
 5.000  0.7594  144.9   0.772   13.8  0.1764  -36.4  0.3783 -109.7
 5.500  0.7632  134.2   0.698    4.6  0.1592  -42.0  0.3619 -120.2
 6.000  0.7747  124.5   0.640   -3.9  0.1425  -45.6  0.3536 -131.3
 6.500  0.7927  115.9   0.592  -12.2  0.1287  -47.7  0.3522 -142.9
 7.000  0.8069  107.9   0.549  -20.2  0.1174  -48.1  0.3531 -154.8
 7.500  0.8168   99.9   0.509  -27.6  0.1086  -47.5  0.3579 -167.9
 8.000  0.8205   91.1   0.467  -35.3  0.1010  -46.3  0.3669  178.2
 8.500  0.8216   82.2   0.423  -42.0  0.0944  -43.6  0.3751  163.4
 9.000  0.8435   74.7   0.386  -47.7  0.0915  -39.0  0.4030  148.0
 9.500  0.8904   68.8   0.355  -52.5  0.0931  -34.1  0.4623  135.2
10.000  0.9262   64.4   0.318  -57.3  0.0989  -30.9  0.5380  125.5
!
!  f       Fmin   Gammaopt  rn/50
! GHz       dB    MAG  ANG    -
 0.900      0.68  0.78   35   0.65
 1.800      1.42  0.60   75   0.50
 2.400      1.57  0.58   98   0.37
 3.000      2.10  0.58  128   0.24
 4.000      2.49  0.57  177   0.09
!
! (c) 2009  Infineon Technologies AG, Munich