! Infineon Technologies  Discrete & RF Semiconductors
! BFP420
!
! VCE =  1.0 V,  IC =  25 mA
! Common Emitter S-Parameters:                            Nov 2009
# GHz  S  MA  R  50
!  f         S11            S21            S12            S22
! GHz     MAG   ANG      MAG   ANG      MAG   ANG      MAG   ANG
 0.010  0.4443   -5.4  45.316  179.5  0.0015  110.2  0.9032    1.5
 0.020  0.4470   -8.6  44.631  176.3  0.0020   86.4  0.9227   -3.2
 0.050  0.4453  -20.2  44.363  169.9  0.0045   85.2  0.9212   -9.5
 0.100  0.4485  -38.9  42.991  159.8  0.0090   77.6  0.8938  -19.6
 0.150  0.4480  -56.2  40.491  150.4  0.0129   71.5  0.8464  -28.9
 0.200  0.4494  -71.4  37.636  142.3  0.0162   66.8  0.7906  -37.0
 0.250  0.4487  -84.6  34.581  135.0  0.0191   63.2  0.7333  -44.2
 0.300  0.4504  -96.0  31.832  128.8  0.0214   60.2  0.6775  -50.5
 0.350  0.4522 -105.8  29.236  123.5  0.0234   57.9  0.6264  -56.1
 0.400  0.4537 -114.1  26.904  118.7  0.0251   56.3  0.5807  -60.9
 0.450  0.4555 -121.3  24.798  114.6  0.0267   55.0  0.5395  -65.3
 0.500  0.4574 -127.8  22.930  111.0  0.0282   54.1  0.5032  -69.4
 0.600  0.4605 -138.3  19.819  104.6  0.0309   53.0  0.4427  -76.4
 0.700  0.4645 -146.9  17.346   99.5  0.0335   52.5  0.3954  -82.7
 0.800  0.4672 -153.8  15.359   95.1  0.0360   52.3  0.3576  -88.4
 0.900  0.4722 -159.8  13.760   91.3  0.0386   52.2  0.3271  -93.7
 1.000  0.4760 -165.1  12.424   87.8  0.0411   52.1  0.3021  -99.0
 1.100  0.4797 -169.5  11.305   84.8  0.0437   52.1  0.2817 -103.7
 1.200  0.4836 -173.7  10.357   81.9  0.0463   52.0  0.2648 -108.9
 1.300  0.4870 -177.4   9.549   79.4  0.0490   51.8  0.2506 -113.5
 1.400  0.4908  179.2   8.850   76.9  0.0516   51.6  0.2393 -118.3
 1.500  0.4928  176.0   8.246   74.6  0.0543   51.3  0.2290 -122.8
 1.600  0.4967  173.2   7.710   72.4  0.0570   50.9  0.2215 -127.3
 1.700  0.4996  170.2   7.237   70.3  0.0597   50.5  0.2148 -131.8
 1.800  0.5020  167.7   6.811   68.2  0.0625   50.0  0.2087 -135.8
 1.900  0.5062  165.0   6.425   66.3  0.0651   49.4  0.2052 -140.6
 2.000  0.5062  162.6   6.095   64.4  0.0679   48.8  0.2006 -144.4
 2.200  0.5131  157.6   5.508   60.6  0.0733   47.4  0.1964 -152.9
 2.400  0.5204  152.9   5.017   57.1  0.0785   45.9  0.1959 -161.3
 2.600  0.5300  148.5   4.600   53.5  0.0836   44.3  0.1981 -169.2
 2.800  0.5390  144.5   4.246   50.3  0.0888   42.8  0.2022 -176.4
 3.000  0.5492  140.8   3.938   47.0  0.0939   41.0  0.2078  176.8
 3.500  0.5795  131.5   3.319   39.1  0.1059   36.3  0.2308  161.8
 4.000  0.6080  123.1   2.852   31.4  0.1174   31.5  0.2584  150.3
 4.500  0.6271  116.5   2.480   24.2  0.1273   26.6  0.2847  141.4
 5.000  0.6383  111.1   2.188   17.8  0.1367   22.1  0.3038  134.2
 5.500  0.6520  105.5   1.963   11.5  0.1456   17.8  0.3247  127.7
 6.000  0.6708  100.0   1.785    5.3  0.1547   13.3  0.3486  121.2
 6.500  0.6916   94.8   1.635   -1.2  0.1637    8.4  0.3697  114.9
 7.000  0.7067   89.6   1.511   -8.0  0.1729    3.4  0.3853  108.2
 7.500  0.7165   84.1   1.402  -14.8  0.1812   -2.3  0.4057  102.1
 8.000  0.7282   77.8   1.283  -21.8  0.1854   -8.5  0.4305   95.9
 8.500  0.7439   71.1   1.160  -28.2  0.1847  -13.8  0.4604   89.1
 9.000  0.7759   65.3   1.059  -33.5  0.1840  -17.6  0.5051   83.4
 9.500  0.8255   60.9   0.985  -38.4  0.1852  -21.1  0.5605   79.3
10.000  0.8632   57.6   0.892  -43.3  0.1863  -24.8  0.6071   75.7
!
!  f       Fmin   Gammaopt  rn/50
! GHz       dB    MAG  ANG    -
 0.900      1.38  0.22 -154   0.13
 1.800      1.65  0.29 -143   0.13
 2.400      1.81  0.26 -138   0.17
 3.000      1.83  0.34 -129   0.18
 4.000      1.97  0.45 -112   0.27
 5.000      2.40  0.49  -95   0.44
 6.000      2.85  0.54  -84   0.65
!
! (c) 2009  Infineon Technologies AG, Munich