! Infineon Technologies  Discrete & RF Semiconductors
! BFP420
!
! VCE =  1.0 V,  IC =  2.0 mA
! Common Emitter S-Parameters:                            Nov 2009
# GHz  S  MA  R  50
!  f         S11            S21            S12            S22
! GHz     MAG   ANG      MAG   ANG      MAG   ANG      MAG   ANG
 0.010  0.9288   -1.5   7.013  179.4  0.0011   94.5  0.9924   -0.1
 0.020  0.9259   -1.8   6.837  179.1  0.0025   83.4  0.9936   -1.0
 0.050  0.9224   -4.0   6.879  176.8  0.0060   86.8  0.9933   -2.6
 0.100  0.9237   -8.2   6.916  173.6  0.0123   85.1  0.9912   -5.3
 0.150  0.9229  -12.4   6.905  170.3  0.0184   82.8  0.9870   -8.0
 0.200  0.9200  -16.5   6.874  167.1  0.0244   80.3  0.9809  -10.6
 0.250  0.9147  -20.6   6.809  163.7  0.0304   78.0  0.9740  -13.2
 0.300  0.9098  -24.8   6.775  160.6  0.0364   75.5  0.9650  -15.8
 0.350  0.9032  -28.9   6.712  157.6  0.0421   73.1  0.9548  -18.3
 0.400  0.8977  -32.9   6.631  154.4  0.0476   70.7  0.9429  -20.8
 0.450  0.8892  -36.9   6.551  151.3  0.0530   68.3  0.9308  -23.2
 0.500  0.8812  -40.9   6.457  148.3  0.0582   66.0  0.9166  -25.6
 0.600  0.8640  -48.8   6.260  142.4  0.0680   61.5  0.8873  -30.3
 0.700  0.8450  -56.4   6.048  136.8  0.0769   57.2  0.8551  -34.7
 0.800  0.8259  -63.7   5.804  131.5  0.0849   53.2  0.8220  -38.8
 0.900  0.8070  -70.9   5.576  126.5  0.0921   49.4  0.7885  -42.7
 1.000  0.7900  -77.9   5.351  121.7  0.0987   45.8  0.7549  -46.5
 1.100  0.7729  -84.5   5.121  117.3  0.1044   42.5  0.7228  -49.9
 1.200  0.7567  -91.1   4.906  112.8  0.1095   39.3  0.6905  -53.3
 1.300  0.7419  -97.3   4.698  108.8  0.1140   36.3  0.6607  -56.4
 1.400  0.7282 -103.5   4.499  104.8  0.1179   33.5  0.6315  -59.4
 1.500  0.7153 -109.2   4.316  101.2  0.1215   30.9  0.6036  -62.2
 1.600  0.7053 -114.8   4.139   97.6  0.1243   28.4  0.5775  -64.8
 1.700  0.6926 -120.3   3.975   94.1  0.1271   26.0  0.5529  -67.4
 1.800  0.6837 -125.4   3.809   90.8  0.1293   23.7  0.5299  -69.8
 1.900  0.6753 -130.7   3.664   87.6  0.1314   21.6  0.5068  -72.3
 2.000  0.6665 -135.3   3.523   84.7  0.1331   19.6  0.4865  -74.4
 2.200  0.6527 -144.9   3.271   78.8  0.1359   15.8  0.4469  -79.0
 2.400  0.6421 -154.0   3.042   73.2  0.1379   12.2  0.4106  -83.5
 2.600  0.6378 -162.9   2.841   67.9  0.1388    8.9  0.3778  -88.0
 2.800  0.6338 -170.9   2.656   63.0  0.1392    6.1  0.3488  -92.3
 3.000  0.6337 -178.4   2.495   58.3  0.1392    3.5  0.3229  -96.6
 3.500  0.6434  164.4   2.153   46.9  0.1376   -2.3  0.2692 -109.2
 4.000  0.6602  149.9   1.881   36.5  0.1356   -6.7  0.2335 -123.1
 4.500  0.6755  138.4   1.650   26.7  0.1326  -10.4  0.2146 -137.8
 5.000  0.6829  129.4   1.460   18.3  0.1295  -12.8  0.2060 -151.0
 5.500  0.6923  121.0   1.311   10.5  0.1266  -14.6  0.2046 -164.2
 6.000  0.7088  113.2   1.194    2.9  0.1252  -15.4  0.2102 -177.5
 6.500  0.7284  106.2   1.100   -4.8  0.1263  -16.2  0.2201  170.6
 7.000  0.7430   99.6   1.019  -12.5  0.1294  -17.2  0.2313  159.5
 7.500  0.7539   92.8   0.946  -20.0  0.1336  -19.1  0.2499  148.4
 8.000  0.7628   85.1   0.868  -27.8  0.1365  -22.0  0.2735  136.9
 8.500  0.7715   77.3   0.787  -34.9  0.1363  -24.7  0.3010  124.5
 9.000  0.7988   70.5   0.720  -41.0  0.1363  -26.1  0.3468  113.6
 9.500  0.8482   65.4   0.666  -46.6  0.1381  -27.2  0.4106  106.3
10.000  0.8857   61.6   0.601  -52.4  0.1416  -28.7  0.4761  101.3
!
!  f       Fmin   Gammaopt  rn/50
! GHz       dB    MAG  ANG    -
 0.900      0.53  0.47   33   0.22
 1.800      1.03  0.29   77   0.17
 2.400      1.13  0.31  102   0.16
 3.000      1.32  0.31  136   0.12
 4.000      1.57  0.37 -168   0.10
 5.000      1.96  0.42 -129   0.28
 6.000      2.72  0.51 -111   0.37
!
! (c) 2009  Infineon Technologies AG, Munich