! Infineon Technologies  Discrete & RF Semiconductors
! BFP420
!
! VCE =  1.0 V,  IC =  20 mA
! Common Emitter S-Parameters:                            Nov 2009
# GHz  S  MA  R  50
!  f         S11            S21            S12            S22
! GHz     MAG   ANG      MAG   ANG      MAG   ANG      MAG   ANG
 0.010  0.5185   -3.8  40.969  179.4  0.0012   97.0  0.9238    1.2
 0.020  0.5183   -7.0  40.245  176.5  0.0023   89.9  0.9378   -3.1
 0.050  0.5168  -16.6  40.053  170.7  0.0051   85.5  0.9364   -8.7
 0.100  0.5116  -33.1  39.080  161.5  0.0095   78.3  0.9127  -17.9
 0.150  0.5064  -48.3  37.166  152.8  0.0136   72.7  0.8721  -26.5
 0.200  0.5011  -61.8  34.933  145.0  0.0173   67.8  0.8227  -34.2
 0.250  0.4921  -74.4  32.431  138.0  0.0204   63.8  0.7706  -41.0
 0.300  0.4875  -85.4  30.148  131.9  0.0230   60.7  0.7183  -47.2
 0.350  0.4833  -95.3  27.920  126.6  0.0253   58.1  0.6687  -52.6
 0.400  0.4798 -103.7  25.870  121.7  0.0273   56.0  0.6235  -57.4
 0.450  0.4771 -111.3  23.988  117.5  0.0290   54.4  0.5820  -61.8
 0.500  0.4749 -118.1  22.290  113.7  0.0306   53.2  0.5445  -65.9
 0.600  0.4729 -129.5  19.405  107.1  0.0334   51.4  0.4812  -73.0
 0.700  0.4728 -138.9  17.068  101.7  0.0360   50.5  0.4305  -79.2
 0.800  0.4734 -146.6  15.169   97.1  0.0385   49.9  0.3895  -84.8
 0.900  0.4749 -153.2  13.619   93.1  0.0409   49.6  0.3559  -90.1
 1.000  0.4783 -159.0  12.325   89.5  0.0434   49.4  0.3281  -95.2
 1.100  0.4800 -164.0  11.234   86.4  0.0458   49.3  0.3051  -99.9
 1.200  0.4840 -168.6  10.303   83.4  0.0483   49.1  0.2857 -104.9
 1.300  0.4868 -172.7   9.507   80.7  0.0508   48.9  0.2692 -109.3
 1.400  0.4895 -176.4   8.816   78.2  0.0533   48.7  0.2560 -114.0
 1.500  0.4911 -180.0   8.222   75.8  0.0558   48.4  0.2438 -118.4
 1.600  0.4954  177.0   7.689   73.5  0.0584   48.1  0.2344 -122.7
 1.700  0.4978  173.6   7.223   71.3  0.0610   47.7  0.2261 -127.2
 1.800  0.4997  171.0   6.799   69.2  0.0636   47.3  0.2187 -131.2
 1.900  0.5038  168.1   6.419   67.2  0.0662   46.8  0.2136 -135.9
 2.000  0.5038  165.5   6.088   65.3  0.0689   46.3  0.2078 -139.7
 2.200  0.5096  160.2   5.502   61.4  0.0740   45.1  0.2012 -148.3
 2.400  0.5167  155.3   5.015   57.8  0.0791   43.7  0.1984 -156.8
 2.600  0.5269  150.7   4.601   54.2  0.0841   42.2  0.1988 -165.0
 2.800  0.5360  146.5   4.245   50.9  0.0890   40.8  0.2013 -172.5
 3.000  0.5459  142.6   3.938   47.6  0.0940   39.1  0.2055 -179.6
 3.500  0.5760  132.9   3.320   39.5  0.1056   34.7  0.2262  164.5
 4.000  0.6037  124.3   2.854   31.8  0.1168   30.1  0.2526  152.4
 4.500  0.6242  117.4   2.481   24.5  0.1266   25.4  0.2784  143.1
 5.000  0.6355  111.9   2.190   18.0  0.1358   21.1  0.2973  135.6
 5.500  0.6491  106.2   1.964   11.8  0.1445   16.8  0.3178  128.9
 6.000  0.6679  100.5   1.787    5.4  0.1535   12.5  0.3416  122.3
 6.500  0.6890   95.3   1.636   -1.2  0.1623    7.7  0.3625  115.8
 7.000  0.7041   90.1   1.513   -7.8  0.1715    2.8  0.3782  109.1
 7.500  0.7147   84.5   1.403  -14.7  0.1798   -2.8  0.3988  102.9
 8.000  0.7259   78.1   1.284  -21.8  0.1841   -8.9  0.4236   96.5
 8.500  0.7413   71.4   1.162  -28.2  0.1834  -14.2  0.4538   89.7
 9.000  0.7734   65.5   1.059  -33.5  0.1828  -18.0  0.4987   83.9
 9.500  0.8239   61.1   0.986  -38.4  0.1840  -21.4  0.5543   79.8
10.000  0.8612   57.8   0.894  -43.4  0.1851  -25.1  0.6011   76.2
!
!  f       Fmin   Gammaopt  rn/50
! GHz       dB    MAG  ANG    -
 0.900      1.23  0.16 -154   0.13
 1.800      1.51  0.24 -144   0.13
 2.400      1.66  0.22 -141   0.15
 3.000      1.69  0.30 -132   0.16
 4.000      1.82  0.42 -115   0.23
 5.000      2.28  0.48  -96   0.37
 6.000      2.65  0.52  -86   0.56
!
! (c) 2009  Infineon Technologies AG, Munich