! Infineon Technologies  Discrete & RF Semiconductors
! BFP420
!
! VCE =  1.0 V,  IC =  2.5 mA
! Common Emitter S-Parameters:                            Nov 2009
# GHz  S  MA  R  50
!  f         S11            S21            S12            S22
! GHz     MAG   ANG      MAG   ANG      MAG   ANG      MAG   ANG
 0.010  0.9135   -1.8   8.762  179.4  0.0004   95.7  0.9909   -0.1
 0.020  0.9082   -1.9   8.557  179.0  0.0024   91.0  0.9917   -1.1
 0.050  0.9080   -4.5   8.606  176.4  0.0060   87.0  0.9916   -2.9
 0.100  0.9048   -9.4   8.645  172.9  0.0123   85.0  0.9888   -6.0
 0.150  0.9026  -14.0   8.616  169.4  0.0182   82.2  0.9837   -9.0
 0.200  0.8997  -18.5   8.566  165.9  0.0242   79.6  0.9764  -11.9
 0.250  0.8925  -23.1   8.469  162.2  0.0300   76.7  0.9677  -14.8
 0.300  0.8861  -27.7   8.401  158.8  0.0357   74.3  0.9567  -17.7
 0.350  0.8786  -32.3   8.297  155.5  0.0413   71.6  0.9441  -20.5
 0.400  0.8707  -36.7   8.178  152.1  0.0465   69.1  0.9299  -23.3
 0.450  0.8610  -41.1   8.049  148.9  0.0517   66.6  0.9151  -26.0
 0.500  0.8506  -45.4   7.905  145.6  0.0566   64.2  0.8984  -28.6
 0.600  0.8305  -54.0   7.611  139.4  0.0656   59.4  0.8639  -33.7
 0.700  0.8089  -62.3   7.290  133.6  0.0737   55.1  0.8269  -38.5
 0.800  0.7882  -70.1   6.948  128.1  0.0809   51.1  0.7894  -42.8
 0.900  0.7674  -77.7   6.626  122.9  0.0871   47.3  0.7521  -47.0
 1.000  0.7487  -85.0   6.310  118.1  0.0927   43.9  0.7155  -50.9
 1.100  0.7312  -91.9   6.000  113.6  0.0975   40.7  0.6808  -54.5
 1.200  0.7149  -98.7   5.710  109.2  0.1018   37.7  0.6466  -58.1
 1.300  0.7004 -105.1   5.436  105.2  0.1055   34.9  0.6153  -61.3
 1.400  0.6873 -111.3   5.179  101.3  0.1087   32.3  0.5853  -64.4
 1.500  0.6760 -117.0   4.942   97.8  0.1116   29.9  0.5569  -67.3
 1.600  0.6658 -122.7   4.718   94.2  0.1139   27.7  0.5305  -70.1
 1.700  0.6554 -128.2   4.513   91.0  0.1162   25.6  0.5058  -72.8
 1.800  0.6478 -133.1   4.308   87.8  0.1179   23.6  0.4829  -75.2
 1.900  0.6403 -138.4   4.129   84.7  0.1197   21.7  0.4604  -77.9
 2.000  0.6331 -143.0   3.959   81.9  0.1211   20.0  0.4404  -80.1
 2.200  0.6214 -152.4   3.655   76.2  0.1234   16.8  0.4020  -85.0
 2.400  0.6142 -161.1   3.385   70.9  0.1251   13.7  0.3672  -89.9
 2.600  0.6124 -169.5   3.148   65.9  0.1262   11.0  0.3363  -94.8
 2.800  0.6109 -177.2   2.933   61.2  0.1268    8.7  0.3091  -99.6
 3.000  0.6134  175.8   2.748   56.7  0.1271    6.4  0.2847 -104.6
 3.500  0.6278  159.6   2.359   45.9  0.1272    1.8  0.2371 -119.0
 4.000  0.6469  145.8   2.052   35.9  0.1273   -1.8  0.2080 -135.0
 4.500  0.6629  135.1   1.796   26.5  0.1268   -4.9  0.1965 -151.1
 5.000  0.6713  126.6   1.587   18.4  0.1262   -7.0  0.1937 -165.0
 5.500  0.6816  118.7   1.425   10.9  0.1260   -8.7  0.1980 -178.2
 6.000  0.6989  111.2   1.297    3.5  0.1272   -9.8  0.2078  169.2
 6.500  0.7186  104.5   1.194   -4.1  0.1304  -11.2  0.2212  158.2
 7.000  0.7336   98.1   1.105  -11.6  0.1352  -12.9  0.2347  148.0
 7.500  0.7447   91.5   1.026  -19.0  0.1407  -15.6  0.2553  138.0
 8.000  0.7536   84.1   0.942  -26.7  0.1444  -19.2  0.2809  127.7
 8.500  0.7639   76.4   0.854  -33.7  0.1445  -22.5  0.3108  116.5
 9.000  0.7925   69.7   0.781  -39.8  0.1444  -24.6  0.3578  106.9
 9.500  0.8416   64.7   0.724  -45.3  0.1461  -26.2  0.4204  100.6
10.000  0.8791   61.1   0.653  -51.1  0.1493  -28.2  0.4824   96.2
!
!  f       Fmin   Gammaopt  rn/50
! GHz       dB    MAG  ANG    -
 0.900      0.55  0.41   33   0.20
 1.800      1.02  0.24   78   0.16
 2.400      1.11  0.26  103   0.15
 3.000      1.28  0.27  140   0.11
 4.000      1.50  0.34 -163   0.10
 5.000      1.85  0.40 -130   0.26
 6.000      2.56  0.50 -109   0.35
!
! (c) 2009  Infineon Technologies AG, Munich