! Infineon Technologies  Discrete & RF Semiconductors
! BFP420
!
! VCE =  1.5 V,  IC =  1.5 mA
! Common Emitter S-Parameters:                            Nov 2009
# GHz  S  MA  R  50
!  f         S11            S21            S12            S22
! GHz     MAG   ANG      MAG   ANG      MAG   ANG      MAG   ANG
 0.010  0.9515   -1.4   5.533  179.4  0.0007   95.8  0.9951   -0.1
 0.020  0.9437   -1.5   5.380  179.2  0.0022   88.4  0.9956   -0.8
 0.050  0.9406   -3.8   5.422  177.2  0.0056   87.8  0.9956   -2.1
 0.100  0.9425   -7.2   5.451  174.4  0.0111   86.5  0.9940   -4.3
 0.150  0.9390  -10.6   5.448  171.5  0.0167   83.9  0.9913   -6.5
 0.200  0.9396  -14.3   5.433  168.7  0.0222   81.7  0.9870   -8.7
 0.250  0.9335  -17.8   5.393  165.6  0.0277   79.4  0.9819  -10.8
 0.300  0.9310  -21.4   5.381  162.9  0.0331   77.4  0.9755  -12.9
 0.350  0.9259  -25.0   5.349  160.2  0.0384   75.3  0.9681  -15.0
 0.400  0.9225  -28.4   5.303  157.4  0.0437   73.1  0.9594  -17.0
 0.450  0.9157  -32.0   5.261  154.6  0.0488   71.0  0.9507  -19.1
 0.500  0.9095  -35.5   5.207  151.8  0.0538   69.0  0.9400  -21.1
 0.600  0.8966  -42.5   5.090  146.4  0.0633   64.8  0.9181  -25.0
 0.700  0.8812  -49.4   4.966  141.2  0.0723   60.8  0.8931  -28.9
 0.800  0.8666  -56.0   4.811  136.2  0.0806   57.0  0.8670  -32.4
 0.900  0.8497  -62.6   4.665  131.4  0.0882   53.3  0.8396  -35.8
 1.000  0.8345  -69.1   4.517  126.9  0.0953   49.8  0.8115  -39.1
 1.100  0.8191  -75.3   4.360  122.5  0.1016   46.5  0.7842  -42.2
 1.200  0.8037  -81.5   4.211  118.1  0.1075   43.2  0.7562  -45.2
 1.300  0.7898  -87.5   4.063  114.1  0.1127   40.1  0.7295  -48.1
 1.400  0.7754  -93.4   3.922  110.1  0.1173   37.1  0.7029  -50.8
 1.500  0.7623  -99.0   3.786  106.3  0.1217   34.4  0.6772  -53.3
 1.600  0.7515 -104.5   3.654  102.6  0.1251   31.6  0.6524  -55.7
 1.700  0.7381 -109.9   3.532   99.2  0.1287   29.1  0.6289  -58.1
 1.800  0.7280 -115.0   3.400   95.7  0.1314   26.6  0.6066  -60.2
 1.900  0.7177 -120.3   3.289   92.4  0.1341   24.2  0.5839  -62.5
 2.000  0.7075 -125.0   3.175   89.4  0.1363   22.0  0.5639  -64.4
 2.200  0.6902 -134.8   2.973   83.2  0.1399   17.7  0.5237  -68.5
 2.400  0.6757 -144.2   2.784   77.4  0.1425   13.6  0.4864  -72.3
 2.600  0.6680 -153.3   2.614   71.8  0.1439    9.8  0.4520  -76.2
 2.800  0.6595 -161.7   2.455   66.6  0.1444    6.5  0.4211  -79.7
 3.000  0.6567 -169.7   2.316   61.6  0.1445    3.2  0.3932  -83.3
 3.500  0.6599  171.8   2.016   49.7  0.1423   -3.7  0.3329  -93.0
 4.000  0.6734  156.1   1.773   38.7  0.1388   -9.0  0.2885 -103.7
 4.500  0.6862  143.6   1.559   28.5  0.1340  -13.5  0.2589 -115.6
 5.000  0.6924  133.7   1.381   19.7  0.1286  -16.5  0.2400 -127.0
 5.500  0.7008  124.7   1.241   11.5  0.1231  -18.5  0.2278 -138.9
 6.000  0.7166  116.3   1.131    3.7  0.1191  -19.2  0.2226 -151.7
 6.500  0.7353  108.9   1.043   -4.2  0.1180  -19.4  0.2235 -164.6
 7.000  0.7502  101.9   0.966  -11.9  0.1192  -19.5  0.2271 -177.2
 7.500  0.7610   94.8   0.897  -19.6  0.1221  -20.4  0.2376  169.9
 8.000  0.7691   86.9   0.823  -27.5  0.1245  -22.4  0.2534  156.2
 8.500  0.7766   78.8   0.748  -34.6  0.1246  -24.2  0.2732  141.3
 9.000  0.8037   71.8   0.684  -40.9  0.1250  -24.9  0.3136  127.2
 9.500  0.8530   66.4   0.632  -46.7  0.1272  -25.3  0.3771  117.4
10.000  0.8907   62.5   0.569  -52.6  0.1317  -26.2  0.4468  111.0
!
!  f       Fmin   Gammaopt  rn/50
! GHz       dB    MAG  ANG    -
 0.900      0.52  0.55   33   0.27
 1.800      1.07  0.35   77   0.21
 2.400      1.18  0.36  101   0.18
 3.000      1.41  0.36  134   0.13
 4.000      1.68  0.40 -172   0.10
 5.000      2.08  0.44 -130   0.32
 6.000      2.89  0.57 -114   0.39
!
! (c) 2009  Infineon Technologies AG, Munich