! Infineon Technologies  Discrete & RF Semiconductors
! BFP420
!
! VCE =  1.5 V,  IC =  30 mA
! Common Emitter S-Parameters:                            Nov 2009
# GHz  S  MA  R  50
!  f         S11            S21            S12            S22
! GHz     MAG   ANG      MAG   ANG      MAG   ANG      MAG   ANG
 0.010  0.3996   -5.4  49.330  179.5  0.0012  110.2  0.9074    2.2
 0.020  0.3973   -8.4  48.522  176.1  0.0019   92.1  0.9265   -2.6
 0.050  0.3917  -20.6  48.179  169.8  0.0040   83.6  0.9276   -8.6
 0.100  0.3968  -39.8  46.651  159.7  0.0077   78.2  0.9008  -18.1
 0.150  0.4000  -57.7  43.905  150.3  0.0110   72.8  0.8534  -26.7
 0.200  0.4046  -72.9  40.779  142.2  0.0137   68.4  0.7974  -34.2
 0.250  0.4068  -86.4  37.440  135.0  0.0162   64.9  0.7398  -40.7
 0.300  0.4103  -97.7  34.453  128.8  0.0182   62.4  0.6839  -46.2
 0.350  0.4138 -107.5  31.634  123.5  0.0200   60.5  0.6327  -51.1
 0.400  0.4178 -115.7  29.103  118.8  0.0216   59.0  0.5867  -55.3
 0.450  0.4201 -122.9  26.825  114.7  0.0231   58.2  0.5454  -59.0
 0.500  0.4227 -129.1  24.811  111.0  0.0244   57.4  0.5087  -62.4
 0.600  0.4280 -139.7  21.438  104.7  0.0270   56.5  0.4478  -68.3
 0.700  0.4341 -148.0  18.769   99.7  0.0295   56.2  0.3995  -73.3
 0.800  0.4378 -154.8  16.619   95.3  0.0320   56.1  0.3606  -77.8
 0.900  0.4422 -160.6  14.888   91.5  0.0345   56.0  0.3289  -82.0
 1.000  0.4475 -165.8  13.444   88.1  0.0371   56.0  0.3022  -86.3
 1.100  0.4510 -170.2  12.237   85.0  0.0396   56.0  0.2800  -90.1
 1.200  0.4553 -174.2  11.209   82.2  0.0422   55.8  0.2608  -94.4
 1.300  0.4593 -177.9  10.332   79.6  0.0448   55.6  0.2445  -98.2
 1.400  0.4638  178.8   9.574   77.2  0.0475   55.3  0.2308 -102.3
 1.500  0.4658  175.6   8.920   74.9  0.0501   55.0  0.2181 -106.2
 1.600  0.4702  172.9   8.337   72.7  0.0527   54.5  0.2080 -110.2
 1.700  0.4729  169.9   7.829   70.6  0.0555   54.0  0.1986 -114.3
 1.800  0.4756  167.4   7.365   68.6  0.0581   53.5  0.1904 -118.1
 1.900  0.4800  164.7   6.950   66.7  0.0608   52.8  0.1839 -122.7
 2.000  0.4801  162.4   6.586   64.8  0.0635   52.2  0.1771 -126.3
 2.200  0.4876  157.4   5.952   61.1  0.0687   50.7  0.1676 -135.2
 2.400  0.4942  152.9   5.420   57.6  0.0739   49.2  0.1621 -144.4
 2.600  0.5050  148.5   4.970   54.1  0.0790   47.5  0.1598 -153.6
 2.800  0.5139  144.5   4.585   50.9  0.0841   45.8  0.1600 -162.5
 3.000  0.5248  140.9   4.254   47.7  0.0890   44.0  0.1625 -170.8
 3.500  0.5558  131.6   3.586   39.9  0.1009   39.2  0.1805  170.5
 4.000  0.5856  123.4   3.085   32.3  0.1122   34.4  0.2061  156.5
 4.500  0.6063  116.8   2.684   25.1  0.1223   29.3  0.2328  146.2
 5.000  0.6186  111.4   2.368   18.8  0.1317   24.8  0.2530  138.1
 5.500  0.6327  105.8   2.125   12.5  0.1407   20.3  0.2746  130.9
 6.000  0.6532  100.4   1.933    6.3  0.1496   15.8  0.2987  124.0
 6.500  0.6747   95.3   1.770   -0.2  0.1586   10.9  0.3205  117.3
 7.000  0.6901   90.1   1.636   -6.9  0.1679    5.9  0.3367  110.3
 7.500  0.7014   84.6   1.517  -13.7  0.1764    0.2  0.3579  104.0
 8.000  0.7135   78.3   1.389  -20.7  0.1811   -6.0  0.3843   97.7
 8.500  0.7309   71.6   1.257  -27.1  0.1808  -11.4  0.4168   90.6
 9.000  0.7646   65.7   1.148  -32.5  0.1806  -15.3  0.4639   84.7
 9.500  0.8155   61.3   1.068  -37.5  0.1820  -18.8  0.5209   80.6
10.000  0.8553   58.1   0.968  -42.6  0.1833  -22.6  0.5692   77.1
!
!  f       Fmin   Gammaopt  rn/50
! GHz       dB    MAG  ANG    -
 0.900      1.51  0.26 -155   0.13
 1.800      1.78  0.33 -142   0.14
 2.400      1.96  0.30 -136   0.18
 3.000      1.98  0.38 -127   0.20
 4.000      2.11  0.47 -111   0.31
 5.000      2.57  0.53  -94   0.51
 6.000      3.00  0.57  -82   0.74
!
! (c) 2009  Infineon Technologies AG, Munich