! Infineon Technologies  Discrete & RF Semiconductors
! BFP420
!
! VCE =  1.0 V,  IC =  35 mA
! Common Emitter S-Parameters:                            Nov 2009
# GHz  S  MA  R  50
!  f         S11            S21            S12            S22
! GHz     MAG   ANG      MAG   ANG      MAG   ANG      MAG   ANG
 0.010  0.3414   -8.3  50.425  179.7  0.0013   92.6  0.8700    2.4
 0.020  0.3411  -12.3  50.023  175.9  0.0021   94.7  0.8890   -3.3
 0.050  0.3424  -27.8  49.636  168.6  0.0045   85.0  0.8896  -10.7
 0.100  0.3585  -52.3  47.576  157.1  0.0086   75.8  0.8551  -22.2
 0.150  0.3746  -72.7  44.070  146.9  0.0120   70.3  0.7979  -32.5
 0.200  0.3939  -88.9  40.261  138.2  0.0148   65.8  0.7336  -41.3
 0.250  0.4070 -102.6  36.401  130.7  0.0171   62.3  0.6706  -48.8
 0.300  0.4197 -113.7  33.041  124.5  0.0192   60.0  0.6118  -55.2
 0.350  0.4317 -122.5  30.006  119.3  0.0209   58.4  0.5603  -60.8
 0.400  0.4386 -129.9  27.363  114.7  0.0225   57.2  0.5156  -65.6
 0.450  0.4462 -136.2  25.036  110.8  0.0239   56.4  0.4763  -69.9
 0.500  0.4523 -141.7  23.017  107.3  0.0253   56.0  0.4424  -73.9
 0.600  0.4620 -150.7  19.714  101.3  0.0280   55.6  0.3876  -81.0
 0.700  0.4698 -157.7  17.154   96.5  0.0307   55.6  0.3456  -87.3
 0.800  0.4757 -163.6  15.123   92.4  0.0333   55.7  0.3129  -92.9
 0.900  0.4818 -168.6  13.511   88.8  0.0360   55.8  0.2872  -98.4
 1.000  0.4869 -173.0  12.170   85.6  0.0386   55.9  0.2663 -103.9
 1.100  0.4911 -176.8  11.058   82.8  0.0414   55.8  0.2495 -108.8
 1.200  0.4960  179.7  10.117   80.0  0.0442   55.6  0.2360 -114.2
 1.300  0.4997  176.5   9.319   77.6  0.0470   55.5  0.2247 -118.9
 1.400  0.5040  173.6   8.631   75.2  0.0498   55.1  0.2163 -123.9
 1.500  0.5067  170.8   8.036   73.0  0.0526   54.7  0.2085 -128.6
 1.600  0.5102  168.4   7.506   70.9  0.0554   54.3  0.2032 -133.1
 1.700  0.5138  165.6   7.047   68.9  0.0583   53.7  0.1985 -137.7
 1.800  0.5157  163.3   6.630   66.9  0.0612   53.1  0.1944 -141.8
 1.900  0.5194  160.9   6.254   65.0  0.0640   52.5  0.1927 -146.5
 2.000  0.5208  158.7   5.928   63.2  0.0668   51.8  0.1895 -150.3
 2.200  0.5270  154.2   5.356   59.5  0.0724   50.2  0.1883 -158.6
 2.400  0.5348  149.9   4.876   56.0  0.0779   48.5  0.1904 -166.8
 2.600  0.5443  145.8   4.473   52.5  0.0832   46.7  0.1948 -174.4
 2.800  0.5522  142.1   4.125   49.3  0.0885   45.0  0.2006  178.9
 3.000  0.5624  138.5   3.826   46.1  0.0937   43.1  0.2075  172.5
 3.500  0.5930  129.7   3.223   38.3  0.1060   38.2  0.2332  158.5
 4.000  0.6200  121.6   2.769   30.7  0.1176   33.2  0.2620  147.8
 4.500  0.6389  115.2   2.408   23.5  0.1278   28.0  0.2887  139.5
 5.000  0.6493  110.0   2.126   17.2  0.1374   23.4  0.3083  132.6
 5.500  0.6624  104.5   1.907   10.9  0.1465   18.9  0.3293  126.4
 6.000  0.6811   99.2   1.734    4.7  0.1557   14.3  0.3533  120.1
 6.500  0.7013   94.0   1.589   -1.9  0.1647    9.3  0.3747  113.9
 7.000  0.7164   88.9   1.470   -8.5  0.1741    4.2  0.3904  107.3
 7.500  0.7261   83.4   1.362  -15.3  0.1824   -1.6  0.4108  101.3
 8.000  0.7363   77.2   1.246  -22.3  0.1866   -7.8  0.4353   95.2
 8.500  0.7510   70.6   1.128  -28.7  0.1858  -13.2  0.4650   88.5
 9.000  0.7827   64.8   1.028  -33.9  0.1851  -17.0  0.5094   82.9
 9.500  0.8322   60.4   0.957  -38.8  0.1863  -20.5  0.5645   78.9
10.000  0.8687   57.3   0.867  -43.7  0.1874  -24.3  0.6110   75.3
!
!  f       Fmin   Gammaopt  rn/50
! GHz       dB    MAG  ANG    -
 0.900      1.64  0.30 -155   0.13
 1.800      1.90  0.37 -142   0.15
 2.400      2.10  0.34 -134   0.19
 3.000      2.11  0.40 -126   0.22
 4.000      2.25  0.50 -110   0.35
 5.000      2.73  0.54  -94   0.59
 6.000      3.16  0.59  -82   0.84
!
! (c) 2009  Infineon Technologies AG, Munich