! Infineon Technologies  Discrete & RF Semiconductors
! BFP420
!
! VCE =  1.0 V,  IC =  3.0 mA
! Common Emitter S-Parameters:                            Nov 2009
# GHz  S  MA  R  50
!  f         S11            S21            S12            S22
! GHz     MAG   ANG      MAG   ANG      MAG   ANG      MAG   ANG
 0.010  0.9042   -2.6  10.126  179.4  0.0011   86.3  0.9885    0.0
 0.020  0.8919   -1.9   9.915  178.8  0.0023   85.8  0.9904   -1.3
 0.050  0.8889   -4.7   9.962  176.2  0.0061   89.1  0.9900   -3.2
 0.100  0.8898  -10.2  10.008  172.5  0.0121   84.0  0.9868   -6.5
 0.150  0.8864  -15.1   9.957  168.6  0.0180   81.6  0.9810   -9.7
 0.200  0.8824  -20.1   9.886  164.9  0.0240   78.7  0.9724  -12.9
 0.250  0.8740  -25.0   9.751  161.0  0.0297   76.0  0.9623  -16.1
 0.300  0.8666  -30.0   9.656  157.4  0.0352   73.3  0.9494  -19.2
 0.350  0.8582  -34.9   9.517  153.9  0.0406   70.5  0.9352  -22.2
 0.400  0.8493  -39.6   9.352  150.4  0.0457   67.8  0.9190  -25.1
 0.450  0.8378  -44.4   9.183  146.9  0.0506   65.3  0.9022  -28.1
 0.500  0.8271  -49.0   8.993  143.6  0.0552   62.8  0.8833  -30.8
 0.600  0.8046  -58.1   8.607  137.1  0.0638   58.0  0.8449  -36.2
 0.700  0.7815  -66.7   8.194  131.1  0.0712   53.7  0.8041  -41.2
 0.800  0.7596  -74.9   7.766  125.6  0.0777   49.7  0.7636  -45.8
 0.900  0.7389  -82.7   7.361  120.3  0.0834   46.0  0.7240  -50.1
 1.000  0.7191  -90.3   6.978  115.5  0.0884   42.7  0.6856  -54.2
 1.100  0.7022  -97.3   6.602  111.0  0.0926   39.7  0.6496  -57.9
 1.200  0.6860 -104.2   6.254  106.7  0.0963   36.8  0.6145  -61.5
 1.300  0.6721 -110.6   5.934  102.7  0.0996   34.2  0.5827  -64.8
 1.400  0.6603 -116.8   5.632   98.9  0.1023   31.8  0.5527  -68.0
 1.500  0.6496 -122.5   5.358   95.5  0.1049   29.6  0.5242  -71.0
 1.600  0.6406 -128.2   5.100   92.0  0.1068   27.6  0.4979  -73.8
 1.700  0.6312 -133.6   4.864   88.8  0.1089   25.7  0.4736  -76.6
 1.800  0.6245 -138.5   4.633   85.7  0.1105   23.9  0.4512  -79.2
 1.900  0.6181 -143.7   4.429   82.7  0.1120   22.2  0.4293  -82.0
 2.000  0.6120 -148.1   4.241   80.0  0.1133   20.7  0.4098  -84.3
 2.200  0.6032 -157.3   3.901   74.5  0.1155   17.8  0.3727  -89.4
 2.400  0.5976 -165.8   3.602   69.4  0.1172   15.1  0.3396  -94.6
 2.600  0.5973 -174.1   3.343   64.5  0.1184   12.8  0.3103  -99.9
 2.800  0.5971  178.7   3.109   60.0  0.1193   10.8  0.2847 -105.2
 3.000  0.6006  172.0   2.907   55.6  0.1201    8.9  0.2623 -110.6
 3.500  0.6176  156.4   2.487   45.2  0.1215    4.9  0.2197 -126.6
 4.000  0.6383  143.2   2.161   35.4  0.1229    1.7  0.1965 -143.9
 4.500  0.6556  132.9   1.888   26.3  0.1240   -1.1  0.1906 -160.6
 5.000  0.6650  124.8   1.667   18.5  0.1251   -3.2  0.1921 -174.5
 5.500  0.6758  117.2   1.497   11.1  0.1265   -5.0  0.1996  172.7
 6.000  0.6926  109.9   1.363    3.8  0.1291   -6.4  0.2123  160.9
 6.500  0.7130  103.4   1.253   -3.6  0.1335   -8.3  0.2277  150.7
 7.000  0.7281   97.1   1.160  -11.0  0.1392  -10.4  0.2421  141.1
 7.500  0.7383   90.6   1.077  -18.4  0.1454  -13.5  0.2637  131.8
 8.000  0.7484   83.4   0.988  -26.1  0.1493  -17.6  0.2901  122.2
 8.500  0.7596   75.8   0.896  -33.0  0.1495  -21.3  0.3209  111.8
 9.000  0.7890   69.2   0.819  -39.0  0.1495  -23.6  0.3682  102.9
 9.500  0.8379   64.3   0.759  -44.5  0.1511  -25.6  0.4298   97.1
10.000  0.8754   60.7   0.686  -50.2  0.1539  -27.9  0.4896   93.1
!
!  f       Fmin   Gammaopt  rn/50
! GHz       dB    MAG  ANG    -
 0.900      0.57  0.35   33   0.18
 1.800      1.02  0.20   79   0.14
 2.400      1.10  0.23  104   0.14
 3.000      1.25  0.24  144   0.11
 4.000      1.46  0.33 -159   0.10
 5.000      1.90  0.39 -128   0.22
 6.000      2.46  0.48 -107   0.35
!
! (c) 2009  Infineon Technologies AG, Munich