! Infineon Technologies  Discrete & RF Semiconductors
! BFP420
!
! VCE =  1.0 V,  IC =  1.5 mA
! Common Emitter S-Parameters:                            Nov 2009
# GHz  S  MA  R  50
!  f         S11            S21            S12            S22
! GHz     MAG   ANG      MAG   ANG      MAG   ANG      MAG   ANG
 0.010  0.9451   -1.5   5.537  179.4  0.0007   82.0  0.9946   -0.1
 0.020  0.9427   -1.6   5.374  179.2  0.0025   89.7  0.9947   -0.9
 0.050  0.9390   -3.7   5.409  177.1  0.0061   88.1  0.9946   -2.3
 0.100  0.9397   -7.5   5.445  174.2  0.0124   85.7  0.9928   -4.7
 0.150  0.9389  -11.1   5.441  171.1  0.0186   83.6  0.9895   -7.1
 0.200  0.9381  -14.8   5.426  168.2  0.0247   81.2  0.9847   -9.4
 0.250  0.9338  -18.6   5.382  165.0  0.0308   78.9  0.9788  -11.8
 0.300  0.9292  -22.3   5.365  162.2  0.0367   76.6  0.9713  -14.1
 0.350  0.9238  -25.9   5.328  159.3  0.0427   74.3  0.9628  -16.4
 0.400  0.9198  -29.6   5.276  156.4  0.0484   72.1  0.9530  -18.6
 0.450  0.9126  -33.3   5.227  153.5  0.0540   69.9  0.9427  -20.9
 0.500  0.9059  -36.9   5.168  150.6  0.0595   67.7  0.9308  -23.0
 0.600  0.8923  -44.1   5.040  145.1  0.0699   63.4  0.9062  -27.3
 0.700  0.8762  -51.2   4.901  139.7  0.0796   59.2  0.8783  -31.3
 0.800  0.8606  -58.0   4.737  134.7  0.0884   55.3  0.8494  -35.2
 0.900  0.8432  -64.7   4.581  129.8  0.0965   51.5  0.8195  -38.8
 1.000  0.8269  -71.4   4.425  125.1  0.1040   47.9  0.7895  -42.3
 1.100  0.8117  -77.7   4.262  120.7  0.1106   44.5  0.7601  -45.6
 1.200  0.7963  -84.0   4.106  116.3  0.1166   41.2  0.7305  -48.8
 1.300  0.7824  -90.1   3.955  112.3  0.1221   38.1  0.7026  -51.7
 1.400  0.7678  -96.0   3.809  108.3  0.1267   35.0  0.6748  -54.6
 1.500  0.7557 -101.7   3.671  104.6  0.1312   32.3  0.6483  -57.3
 1.600  0.7441 -107.3   3.538  100.8  0.1346   29.6  0.6230  -59.8
 1.700  0.7316 -112.7   3.415   97.3  0.1382   27.0  0.5991  -62.3
 1.800  0.7223 -117.8   3.283   93.9  0.1410   24.5  0.5765  -64.6
 1.900  0.7122 -123.1   3.174   90.6  0.1436   22.1  0.5537  -67.0
 2.000  0.7030 -127.8   3.061   87.6  0.1458   19.9  0.5335  -69.0
 2.200  0.6871 -137.5   2.860   81.4  0.1494   15.6  0.4935  -73.4
 2.400  0.6747 -146.9   2.675   75.6  0.1518   11.5  0.4567  -77.6
 2.600  0.6665 -155.9   2.509   70.0  0.1530    7.7  0.4231  -81.7
 2.800  0.6594 -164.2   2.355   64.9  0.1534    4.3  0.3929  -85.7
 3.000  0.6583 -172.1   2.221   59.9  0.1532    1.2  0.3658  -89.6
 3.500  0.6631  169.7   1.929   48.0  0.1506   -5.8  0.3086 -100.6
 4.000  0.6770  154.3   1.694   37.0  0.1466  -11.2  0.2682 -112.8
 4.500  0.6898  142.1   1.490   26.8  0.1412  -15.8  0.2440 -125.9
 5.000  0.6961  132.5   1.320   18.0  0.1352  -18.9  0.2305 -138.2
 5.500  0.7047  123.7   1.186    9.9  0.1292  -21.0  0.2239 -150.7
 6.000  0.7203  115.5   1.081    2.1  0.1247  -21.9  0.2248 -163.8
 6.500  0.7399  108.2   0.996   -5.7  0.1231  -22.3  0.2312 -176.3
 7.000  0.7545  101.3   0.924  -13.5  0.1239  -22.6  0.2396  171.8
 7.500  0.7646   94.2   0.858  -21.2  0.1263  -23.6  0.2552  159.8
 8.000  0.7733   86.3   0.788  -29.0  0.1280  -25.6  0.2756  147.2
 8.500  0.7803   78.3   0.714  -36.2  0.1274  -27.4  0.2996  133.8
 9.000  0.8072   71.4   0.653  -42.4  0.1273  -28.0  0.3430  121.4
 9.500  0.8554   66.1   0.603  -48.0  0.1291  -28.3  0.4076  112.8
10.000  0.8926   62.2   0.543  -53.7  0.1332  -29.2  0.4767  106.9
!
!  f       Fmin   Gammaopt  rn/50
! GHz       dB    MAG  ANG    -
 0.900      0.52  0.55   33   0.27
 1.800      1.07  0.35   77   0.21
 2.400      1.18  0.36  101   0.18
 3.000      1.41  0.36  134   0.13
 4.000      1.68  0.40 -172   0.10
 5.000      2.08  0.44 -130   0.32
 6.000      2.89  0.57 -114   0.39
!
! (c) 2009  Infineon Technologies AG, Munich