! Infineon Technologies  Discrete & RF Semiconductors
! BFP420
!
! VCE =  1.5 V,  IC =  0.5 mA
! Common Emitter S-Parameters:                            Nov 2009
# GHz  S  MA  R  50
!  f         S11            S21            S12            S22
! GHz     MAG   ANG      MAG   ANG      MAG   ANG      MAG   ANG
 0.010  0.9839   -1.4   2.016  179.6  0.0007   83.6  0.9984   -0.2
 0.020  0.9789   -1.0   1.961  179.4  0.0023   90.5  0.9981   -0.6
 0.050  0.9796   -2.6   1.970  177.7  0.0056   88.7  0.9982   -1.5
 0.100  0.9775   -5.3   1.987  175.6  0.0113   86.9  0.9973   -3.2
 0.150  0.9778   -7.8   1.989  173.1  0.0170   85.4  0.9955   -4.7
 0.200  0.9779  -10.5   1.990  170.9  0.0227   83.5  0.9928   -6.3
 0.250  0.9757  -13.0   1.979  168.4  0.0284   81.8  0.9900   -7.8
 0.300  0.9737  -15.7   1.983  166.2  0.0339   80.1  0.9859   -9.4
 0.350  0.9721  -18.3   1.979  163.9  0.0396   78.4  0.9814  -10.9
 0.400  0.9705  -20.9   1.971  161.6  0.0451   76.6  0.9762  -12.4
 0.450  0.9677  -23.6   1.964  159.2  0.0507   75.0  0.9708  -13.9
 0.500  0.9645  -26.2   1.957  156.9  0.0562   73.2  0.9645  -15.4
 0.600  0.9587  -31.5   1.935  152.3  0.0669   69.7  0.9511  -18.3
 0.700  0.9512  -36.8   1.917  147.8  0.0774   66.2  0.9356  -21.2
 0.800  0.9430  -42.0   1.887  143.4  0.0874   62.9  0.9194  -23.9
 0.900  0.9337  -47.2   1.859  139.1  0.0970   59.5  0.9020  -26.5
 1.000  0.9254  -52.4   1.829  134.9  0.1063   56.3  0.8841  -29.2
 1.100  0.9168  -57.6   1.794  130.9  0.1151   53.1  0.8659  -31.6
 1.200  0.9076  -62.8   1.762  126.7  0.1236   49.9  0.8468  -34.0
 1.300  0.8979  -67.8   1.729  122.8  0.1314   46.8  0.8284  -36.3
 1.400  0.8882  -73.0   1.695  118.8  0.1389   43.6  0.8096  -38.6
 1.500  0.8790  -77.9   1.663  115.2  0.1460   40.7  0.7911  -40.8
 1.600  0.8703  -82.9   1.632  111.3  0.1521   37.6  0.7725  -42.9
 1.700  0.8597  -87.8   1.600  107.7  0.1583   34.8  0.7548  -44.8
 1.800  0.8511  -92.5   1.564  104.1  0.1637   31.9  0.7376  -46.8
 1.900  0.8426  -97.5   1.536  100.6  0.1689   29.1  0.7196  -48.8
 2.000  0.8321 -102.0   1.501   97.2  0.1734   26.4  0.7032  -50.5
 2.200  0.8143 -111.5   1.444   90.4  0.1815   21.1  0.6699  -54.1
 2.400  0.7971 -120.8   1.385   83.9  0.1881   15.8  0.6384  -57.6
 2.600  0.7834 -130.2   1.329   77.6  0.1926   10.7  0.6080  -61.0
 2.800  0.7702 -139.0   1.271   71.5  0.1955    5.9  0.5801  -64.2
 3.000  0.7622 -147.6   1.220   65.7  0.1973    1.2  0.5550  -67.3
 3.500  0.7507 -168.4   1.103   51.7  0.1960   -9.5  0.4972  -75.7
 4.000  0.7525  173.3   0.996   38.7  0.1900  -18.6  0.4531  -84.4
 4.500  0.7592  158.0   0.893   26.5  0.1800  -27.0  0.4216  -94.1
 5.000  0.7605  145.9   0.798   16.3  0.1661  -33.9  0.3984 -103.8
 5.500  0.7636  135.1   0.721    7.0  0.1500  -39.5  0.3785 -113.7
 6.000  0.7752  125.2   0.660   -1.5  0.1341  -42.8  0.3661 -124.3
 6.500  0.7930  116.6   0.611   -9.7  0.1212  -44.5  0.3609 -135.4
 7.000  0.8069  108.4   0.567  -17.8  0.1109  -44.4  0.3576 -147.0
 7.500  0.8160  100.3   0.526  -25.3  0.1031  -43.3  0.3578 -159.8
 8.000  0.8198   91.5   0.483  -33.0  0.0969  -41.7  0.3614 -173.8
 8.500  0.8208   82.5   0.438  -39.7  0.0919  -38.8  0.3643  171.0
 9.000  0.8425   74.9   0.401  -45.6  0.0902  -34.3  0.3860  154.8
 9.500  0.8889   69.0   0.368  -50.6  0.0927  -29.8  0.4406  140.8
10.000  0.9259   64.6   0.330  -55.6  0.0994  -26.9  0.5146  130.3
!
!  f       Fmin   Gammaopt  rn/50
! GHz       dB    MAG  ANG    -
 0.900      0.68  0.78   35   0.65
 1.800      1.42  0.60   75   0.50
 2.400      1.57  0.58   98   0.37
 3.000      2.10  0.58  128   0.24
 4.000      2.49  0.57  177   0.09
!
! (c) 2009  Infineon Technologies AG, Munich