! Infineon Technologies  Discrete & RF Semiconductors
! BFP420
!
! VCE =  1.0 V,  IC =  15 mA
! Common Emitter S-Parameters:                            Nov 2009
# GHz  S  MA  R  50
!  f         S11            S21            S12            S22
! GHz     MAG   ANG      MAG   ANG      MAG   ANG      MAG   ANG
 0.010  0.6023   -3.8  34.994  179.3  0.0013   87.6  0.9416    0.9
 0.020  0.5999   -5.6  34.372  176.9  0.0021   91.1  0.9531   -2.8
 0.050  0.5981  -13.6  34.279  171.8  0.0053   83.9  0.9515   -7.7
 0.100  0.5909  -27.1  33.698  163.6  0.0100   78.8  0.9328  -15.7
 0.150  0.5817  -39.8  32.416  155.8  0.0146   74.3  0.9006  -23.3
 0.200  0.5714  -51.6  30.873  148.7  0.0186   69.3  0.8599  -30.3
 0.250  0.5564  -62.9  29.057  142.0  0.0222   65.2  0.8155  -36.7
 0.300  0.5467  -73.1  27.358  136.1  0.0253   61.9  0.7687  -42.5
 0.350  0.5358  -82.5  25.628  130.8  0.0280   58.8  0.7230  -47.8
 0.400  0.5273  -90.7  23.983  125.9  0.0303   56.4  0.6798  -52.5
 0.450  0.5187  -98.4  22.428  121.6  0.0324   54.3  0.6391  -56.9
 0.500  0.5125 -105.4  20.991  117.7  0.0342   52.7  0.6014  -60.9
 0.600  0.5013 -117.6  18.486  110.8  0.0373   50.1  0.5357  -68.0
 0.700  0.4950 -127.7  16.394  105.1  0.0400   48.4  0.4813  -74.1
 0.800  0.4905 -136.3  14.657  100.2  0.0425   47.3  0.4361  -79.7
 0.900  0.4885 -143.7  13.217   95.9  0.0449   46.5  0.3986  -84.8
 1.000  0.4888 -150.3  12.002   92.1  0.0472   45.9  0.3668  -89.8
 1.100  0.4892 -155.9  10.966   88.8  0.0495   45.6  0.3403  -94.3
 1.200  0.4905 -161.1  10.077   85.6  0.0518   45.2  0.3173  -99.0
 1.300  0.4920 -165.7   9.316   82.7  0.0541   44.9  0.2978 -103.3
 1.400  0.4943 -169.9   8.650   80.1  0.0564   44.7  0.2815 -107.7
 1.500  0.4957 -173.8   8.074   77.6  0.0588   44.4  0.2667 -111.9
 1.600  0.4984 -177.4   7.558   75.1  0.0611   44.1  0.2547 -116.1
 1.700  0.5001  178.9   7.106   72.9  0.0635   43.7  0.2439 -120.3
 1.800  0.5014  175.9   6.694   70.7  0.0659   43.3  0.2344 -124.2
 1.900  0.5053  172.8   6.321   68.6  0.0683   42.9  0.2269 -128.8
 2.000  0.5052  169.9   5.999   66.6  0.0707   42.5  0.2191 -132.5
 2.200  0.5102  164.2   5.431   62.6  0.0755   41.4  0.2087 -141.0
 2.400  0.5173  158.9   4.948   58.8  0.0802   40.2  0.2024 -149.6
 2.600  0.5271  153.9   4.543   55.1  0.0849   38.9  0.1995 -158.1
 2.800  0.5347  149.4   4.193   51.7  0.0895   37.6  0.1992 -166.1
 3.000  0.5449  145.2   3.892   48.3  0.0942   36.2  0.2012 -173.6
 3.500  0.5750  134.9   3.283   40.1  0.1052   32.2  0.2177  169.3
 4.000  0.6026  125.9   2.822   32.2  0.1159   27.9  0.2417  156.1
 4.500  0.6230  118.7   2.455   24.8  0.1253   23.5  0.2664  146.0
 5.000  0.6342  113.0   2.167   18.2  0.1342   19.4  0.2849  138.0
 5.500  0.6480  107.1   1.944   11.8  0.1426   15.4  0.3051  131.0
 6.000  0.6669  101.4   1.768    5.5  0.1512   11.3  0.3283  124.1
 6.500  0.6875   96.0   1.619   -1.2  0.1600    6.6  0.3492  117.4
 7.000  0.7031   90.7   1.497   -8.0  0.1690    1.9  0.3649  110.6
 7.500  0.7128   85.0   1.388  -14.9  0.1772   -3.6  0.3857  104.3
 8.000  0.7251   78.6   1.272  -22.0  0.1816   -9.6  0.4111   97.8
 8.500  0.7405   71.8   1.150  -28.4  0.1810  -14.8  0.4416   90.7
 9.000  0.7726   65.9   1.050  -33.8  0.1805  -18.4  0.4867   84.8
 9.500  0.8229   61.4   0.977  -38.8  0.1817  -21.8  0.5426   80.7
10.000  0.8605   58.1   0.885  -43.8  0.1829  -25.4  0.5900   77.1
!
!  f       Fmin   Gammaopt  rn/50
! GHz       dB    MAG  ANG    -
 0.900      1.06  0.09 -152   0.13
 1.800      1.36  0.18 -147   0.12
 2.400      1.49  0.17 -148   0.14
 3.000      1.53  0.25 -138   0.14
 4.000      1.67  0.38 -119   0.20
 5.000      2.14  0.44 -103   0.32
 6.000      2.48  0.50  -88   0.47
!
! (c) 2009  Infineon Technologies AG, Munich