! Infineon Technologies  Discrete & RF Semiconductors
! BFP420
!
! VCE =  2.0 V,  IC =  4.0 mA
! Common Emitter S-Parameters:                            Nov 2009
# GHz  S  MA  R  50
!  f         S11            S21            S12            S22
! GHz     MAG   ANG      MAG   ANG      MAG   ANG      MAG   ANG
 0.010  0.8617   -1.1  13.167  179.3  0.0011  106.3  0.9871    0.1
 0.020  0.8643   -2.2  12.826  178.6  0.0020   85.9  0.9906   -1.2
 0.050  0.8605   -5.1  12.861  175.9  0.0051   86.9  0.9899   -3.1
 0.100  0.8610  -10.9  12.899  172.0  0.0100   84.0  0.9865   -6.4
 0.150  0.8561  -16.1  12.824  168.0  0.0148   81.4  0.9800   -9.6
 0.200  0.8518  -21.4  12.699  164.1  0.0196   78.7  0.9710  -12.8
 0.250  0.8414  -26.7  12.514  160.0  0.0242   75.9  0.9601  -15.8
 0.300  0.8336  -32.0  12.365  156.3  0.0287   73.1  0.9464  -18.9
 0.350  0.8238  -37.1  12.159  152.7  0.0331   70.5  0.9310  -21.9
 0.400  0.8141  -42.1  11.920  149.0  0.0371   67.8  0.9138  -24.7
 0.450  0.8011  -47.1  11.676  145.5  0.0411   65.4  0.8961  -27.5
 0.500  0.7894  -52.0  11.403  142.0  0.0447   63.0  0.8765  -30.2
 0.600  0.7642  -61.4  10.860  135.4  0.0514   58.5  0.8362  -35.3
 0.700  0.7386  -70.4  10.292  129.3  0.0573   54.3  0.7945  -40.0
 0.800  0.7157  -78.7   9.702  123.7  0.0623   50.7  0.7534  -44.3
 0.900  0.6933  -86.8   9.157  118.5  0.0667   47.3  0.7134  -48.3
 1.000  0.6737  -94.5   8.640  113.7  0.0705   44.3  0.6748  -52.0
 1.100  0.6556 -101.6   8.146  109.3  0.0739   41.7  0.6390  -55.4
 1.200  0.6406 -108.5   7.686  105.0  0.0768   39.2  0.6042  -58.7
 1.300  0.6271 -114.9   7.265  101.2  0.0794   37.0  0.5730  -61.7
 1.400  0.6146 -121.1   6.873   97.4  0.0816   35.0  0.5431  -64.6
 1.500  0.6046 -126.8   6.519   94.1  0.0837   33.2  0.5153  -67.2
 1.600  0.5972 -132.3   6.185   90.7  0.0854   31.5  0.4896  -69.7
 1.700  0.5881 -137.7   5.887   87.6  0.0872   30.0  0.4656  -72.2
 1.800  0.5814 -142.6   5.594   84.7  0.0886   28.6  0.4439  -74.4
 1.900  0.5760 -147.6   5.337   81.8  0.0901   27.3  0.4220  -76.9
 2.000  0.5702 -151.9   5.097   79.2  0.0914   26.1  0.4029  -78.9
 2.200  0.5623 -160.9   4.673   73.9  0.0939   23.9  0.3664  -83.4
 2.400  0.5583 -169.3   4.302   69.0  0.0959   21.8  0.3333  -87.9
 2.600  0.5594 -177.2   3.982   64.4  0.0977   20.1  0.3037  -92.5
 2.800  0.5603  175.7   3.695   60.1  0.0994   18.5  0.2775  -97.2
 3.000  0.5649  169.2   3.451   55.9  0.1010   17.1  0.2542 -101.9
 3.500  0.5846  154.1   2.942   46.0  0.1049   13.9  0.2071 -116.4
 4.000  0.6075  141.4   2.549   36.7  0.1091   11.2  0.1779 -133.2
 4.500  0.6268  131.5   2.226   28.0  0.1130    8.6  0.1660 -151.0
 5.000  0.6372  123.7   1.965   20.4  0.1169    6.3  0.1630 -166.2
 5.500  0.6496  116.3   1.763   13.3  0.1208    4.2  0.1673  179.0
 6.000  0.6681  109.2   1.604    6.2  0.1254    2.2  0.1770  165.4
 6.500  0.6886  102.8   1.474   -1.0  0.1315   -0.2  0.1901  153.7
 7.000  0.7045   96.7   1.364   -8.3  0.1386   -3.0  0.2022  143.1
 7.500  0.7154   90.4   1.265  -15.6  0.1459   -6.7  0.2221  133.1
 8.000  0.7275   83.2   1.161  -23.1  0.1509  -11.4  0.2481  122.9
 8.500  0.7410   75.7   1.053  -30.0  0.1518  -15.6  0.2800  111.8
 9.000  0.7723   69.2   0.965  -36.0  0.1524  -18.5  0.3283  102.4
 9.500  0.8237   64.3   0.896  -41.6  0.1542  -20.9  0.3897   96.6
10.000  0.8627   60.8   0.811  -47.4  0.1572  -23.6  0.4483   92.8
!
!  f       Fmin   Gammaopt  rn/50
! GHz       dB    MAG  ANG    -
 0.900      0.61  0.27   32   0.16
 1.800      1.03  0.14   83   0.13
 2.400      1.11  0.17  110   0.14
 3.000      1.23  0.20  153   0.11
 4.000      1.42  0.31 -151   0.11
 5.000      1.77  0.38 -123   0.23
 6.000      2.35  0.47 -104   0.33
!
! (c) 2009  Infineon Technologies AG, Munich