! Infineon Technologies  Discrete & RF Semiconductors
! BFP420
!
! VCE =  2.0 V,  IC =  3.0 mA
! Common Emitter S-Parameters:                            Nov 2009
# GHz  S  MA  R  50
!  f         S11            S21            S12            S22
! GHz     MAG   ANG      MAG   ANG      MAG   ANG      MAG   ANG
 0.010  0.9020   -1.3  10.199  179.2  0.0008  112.8  0.9909    0.1
 0.020  0.8966   -1.9   9.945  178.8  0.0022   86.1  0.9927   -1.1
 0.050  0.8928   -4.3   9.989  176.4  0.0049   88.4  0.9927   -2.7
 0.100  0.8923   -9.2  10.024  173.0  0.0101   85.2  0.9902   -5.5
 0.150  0.8887  -13.9   9.986  169.4  0.0152   82.3  0.9855   -8.3
 0.200  0.8860  -18.5   9.924  166.0  0.0201   79.8  0.9785  -11.0
 0.250  0.8783  -23.1   9.814  162.3  0.0249   77.4  0.9705  -13.7
 0.300  0.8722  -27.7   9.737  159.0  0.0296   74.8  0.9602  -16.3
 0.350  0.8646  -32.2   9.618  155.7  0.0342   72.4  0.9486  -19.0
 0.400  0.8564  -36.6   9.481  152.4  0.0386   70.0  0.9352  -21.5
 0.450  0.8469  -41.1   9.331  149.1  0.0429   67.6  0.9212  -24.0
 0.500  0.8366  -45.5   9.170  145.9  0.0470   65.3  0.9056  -26.4
 0.600  0.8155  -54.0   8.829  139.7  0.0545   60.8  0.8729  -31.1
 0.700  0.7936  -62.3   8.464  133.9  0.0613   56.6  0.8376  -35.5
 0.800  0.7715  -70.1   8.066  128.4  0.0673   52.9  0.8020  -39.5
 0.900  0.7503  -77.7   7.693  123.3  0.0726   49.3  0.7661  -43.4
 1.000  0.7308  -85.1   7.324  118.5  0.0774   46.0  0.7308  -47.0
 1.100  0.7125  -91.9   6.963  114.0  0.0815   43.1  0.6972  -50.3
 1.200  0.6952  -98.7   6.626  109.6  0.0852   40.2  0.6637  -53.5
 1.300  0.6809 -105.1   6.305  105.7  0.0884   37.7  0.6332  -56.4
 1.400  0.6664 -111.3   6.001  101.8  0.0911   35.2  0.6035  -59.3
 1.500  0.6546 -117.0   5.726   98.3  0.0937   33.1  0.5754  -61.9
 1.600  0.6443 -122.6   5.462   94.7  0.0957   31.0  0.5492  -64.4
 1.700  0.6331 -128.2   5.221   91.5  0.0978   29.1  0.5244  -66.8
 1.800  0.6253 -133.2   4.980   88.4  0.0994   27.3  0.5018  -68.9
 1.900  0.6174 -138.4   4.770   85.3  0.1011   25.6  0.4789  -71.3
 2.000  0.6097 -142.9   4.568   82.5  0.1024   24.1  0.4588  -73.2
 2.200  0.5983 -152.3   4.213   76.9  0.1047   21.1  0.4198  -77.5
 2.400  0.5903 -161.1   3.896   71.8  0.1066   18.4  0.3842  -81.6
 2.600  0.5883 -169.5   3.618   66.8  0.1080   16.1  0.3521  -85.7
 2.800  0.5856 -177.2   3.367   62.3  0.1090   14.1  0.3233  -89.8
 3.000  0.5888  175.7   3.152   57.9  0.1099   12.2  0.2977  -93.9
 3.500  0.6034  159.5   2.701   47.4  0.1117    8.2  0.2436 -105.9
 4.000  0.6236  145.9   2.348   37.6  0.1135    5.2  0.2062 -119.8
 4.500  0.6408  135.1   2.054   28.5  0.1151    2.5  0.1852 -135.3
 5.000  0.6502  126.7   1.814   20.6  0.1166    0.4  0.1743 -149.4
 5.500  0.6620  118.8   1.627   13.2  0.1184   -1.3  0.1711 -164.0
 6.000  0.6795  111.3   1.481    5.9  0.1211   -2.6  0.1747 -178.6
 6.500  0.6997  104.7   1.362   -1.5  0.1257   -4.3  0.1828  168.4
 7.000  0.7154   98.3   1.261   -9.0  0.1317   -6.3  0.1918  156.7
 7.500  0.7268   91.8   1.171  -16.4  0.1383   -9.3  0.2090  145.2
 8.000  0.7370   84.4   1.074  -24.1  0.1429  -13.3  0.2323  133.4
 8.500  0.7491   76.7   0.975  -31.0  0.1440  -17.0  0.2614  120.6
 9.000  0.7797   70.1   0.894  -37.2  0.1446  -19.5  0.3084  109.6
 9.500  0.8301   65.0   0.829  -42.9  0.1466  -21.6  0.3710  102.7
10.000  0.8693   61.4   0.749  -48.8  0.1500  -23.8  0.4330   98.3
!
!  f       Fmin   Gammaopt  rn/50
! GHz       dB    MAG  ANG    -
 0.900      0.57  0.35   33   0.18
 1.800      1.02  0.20   79   0.14
 2.400      1.10  0.23  104   0.14
 3.000      1.25  0.24  144   0.11
 4.000      1.46  0.33 -159   0.10
 5.000      1.90  0.39 -128   0.22
 6.000      2.46  0.48 -107   0.35
!
! (c) 2009  Infineon Technologies AG, Munich