! Infineon Technologies  Discrete & RF Semiconductors
! BFP420
!
! VCE =  2.5 V,  IC =  6.0 mA
! Common Emitter S-Parameters:                            Nov 2009
# GHz  S  MA  R  50
!  f         S11            S21            S12            S22
! GHz     MAG   ANG      MAG   ANG      MAG   ANG      MAG   ANG
 0.010  0.8063   -2.1  18.505  179.1  0.0007   88.0  0.9822    0.4
 0.020  0.8084   -2.6  18.052  178.1  0.0019   86.1  0.9864   -1.5
 0.050  0.8052   -6.6  18.065  175.0  0.0045   85.5  0.9855   -3.7
 0.100  0.8004  -13.2  18.038  170.4  0.0091   82.8  0.9804   -7.6
 0.150  0.7967  -19.7  17.842  165.7  0.0136   79.8  0.9709  -11.4
 0.200  0.7886  -26.0  17.585  161.2  0.0178   76.8  0.9574  -15.1
 0.250  0.7770  -32.4  17.198  156.5  0.0219   73.8  0.9414  -18.6
 0.300  0.7658  -38.6  16.868  152.2  0.0258   70.9  0.9219  -22.2
 0.350  0.7521  -44.7  16.449  148.1  0.0295   68.1  0.9008  -25.5
 0.400  0.7396  -50.5  15.998  144.1  0.0329   65.3  0.8777  -28.6
 0.450  0.7246  -56.2  15.525  140.2  0.0361   62.8  0.8542  -31.7
 0.500  0.7094  -61.7  15.037  136.5  0.0390   60.4  0.8292  -34.6
 0.600  0.6818  -72.2  14.065  129.5  0.0442   56.1  0.7797  -39.9
 0.700  0.6546  -82.1  13.109  123.2  0.0487   52.4  0.7309  -44.7
 0.800  0.6307  -91.0  12.179  117.6  0.0524   49.3  0.6849  -49.0
 0.900  0.6104  -99.4  11.345  112.4  0.0556   46.5  0.6420  -52.9
 1.000  0.5930 -107.3  10.578  107.8  0.0585   44.2  0.6019  -56.5
 1.100  0.5786 -114.5   9.871  103.5  0.0610   42.2  0.5660  -59.7
 1.200  0.5661 -121.4   9.230   99.5  0.0632   40.4  0.5319  -62.9
 1.300  0.5560 -127.7   8.654   95.8  0.0653   38.9  0.5016  -65.7
 1.400  0.5479 -133.7   8.130   92.3  0.0671   37.5  0.4734  -68.5
 1.500  0.5407 -139.2   7.666   89.2  0.0690   36.3  0.4474  -71.0
 1.600  0.5361 -144.4   7.237   86.1  0.0706   35.2  0.4240  -73.5
 1.700  0.5299 -149.6   6.853   83.3  0.0722   34.3  0.4019  -75.9
 1.800  0.5267 -154.1   6.487   80.6  0.0738   33.3  0.3821  -78.1
 1.900  0.5237 -158.7   6.164   77.9  0.0753   32.5  0.3625  -80.6
 2.000  0.5196 -162.9   5.868   75.5  0.0768   31.8  0.3454  -82.5
 2.200  0.5176 -171.1   5.352   70.6  0.0798   30.3  0.3128  -87.1
 2.400  0.5178 -178.8   4.906   66.2  0.0826   29.0  0.2833  -92.0
 2.600  0.5219  174.1   4.524   61.8  0.0853   27.7  0.2572  -97.0
 2.800  0.5263  167.7   4.187   57.9  0.0880   26.7  0.2342 -102.2
 3.000  0.5330  161.9   3.899   54.0  0.0907   25.5  0.2140 -107.6
 3.500  0.5577  148.2   3.311   44.8  0.0974   22.7  0.1746 -124.7
 4.000  0.5841  136.6   2.860   36.1  0.1043   20.0  0.1539 -144.4
 4.500  0.6045  127.6   2.494   27.9  0.1108   16.9  0.1509 -163.8
 5.000  0.6169  120.5   2.200   20.7  0.1171   14.1  0.1547 -179.7
 5.500  0.6303  113.6   1.974   13.8  0.1231   11.2  0.1643  166.1
 6.000  0.6498  107.0   1.795    7.0  0.1295    8.4  0.1789  153.5
 6.500  0.6716  101.0   1.648    0.1  0.1369    5.1  0.1951  142.8
 7.000  0.6877   95.2   1.524   -7.1  0.1450    1.5  0.2089  133.0
 7.500  0.6990   89.0   1.414  -14.2  0.1530   -2.9  0.2300  124.0
 8.000  0.7114   82.1   1.297  -21.6  0.1583   -8.1  0.2572  115.0
 8.500  0.7276   74.9   1.177  -28.3  0.1593  -12.8  0.2912  105.0
 9.000  0.7608   68.5   1.079  -34.2  0.1598  -16.2  0.3405   96.7
 9.500  0.8127   63.8   1.002  -39.7  0.1616  -19.1  0.4009   91.6
10.000  0.8536   60.3   0.908  -45.4  0.1642  -22.2  0.4563   88.1
!
!  f       Fmin   Gammaopt  rn/50
! GHz       dB    MAG  ANG    -
 0.900      0.70  0.16   29   0.14
 1.800      1.08  0.06  113   0.12
 2.400      1.17  0.11  132   0.13
 3.000      1.26  0.17  176   0.11
 4.000      1.43  0.31 -139   0.13
 5.000      1.82  0.38 -115   0.24
 6.000      2.30  0.43  -99   0.37
!
! (c) 2009  Infineon Technologies AG, Munich