! Infineon Technologies  Discrete & RF Semiconductors
! BFP420
!
! VCE =  2.5 V,  IC =  2.0 mA
! Common Emitter S-Parameters:                            Nov 2009
# GHz  S  MA  R  50
!  f         S11            S21            S12            S22
! GHz     MAG   ANG      MAG   ANG      MAG   ANG      MAG   ANG
 0.010  0.9251   -1.7   7.172  179.4  0.0009  100.3  0.9942    0.0
 0.020  0.9279   -1.6   6.984  179.1  0.0022   90.8  0.9951   -0.8
 0.050  0.9253   -3.7   7.018  177.0  0.0048   87.1  0.9954   -2.1
 0.100  0.9264   -7.9   7.056  174.0  0.0098   86.1  0.9938   -4.4
 0.150  0.9243  -11.5   7.047  171.1  0.0147   83.5  0.9905   -6.5
 0.200  0.9219  -15.2   7.021  168.2  0.0195   81.4  0.9862   -8.7
 0.250  0.9171  -19.0   6.968  165.0  0.0243   79.4  0.9811  -10.9
 0.300  0.9140  -22.9   6.943  162.2  0.0290   77.0  0.9742  -13.0
 0.350  0.9071  -26.7   6.895  159.3  0.0337   74.9  0.9666  -15.1
 0.400  0.9017  -30.4   6.826  156.4  0.0382   72.7  0.9574  -17.2
 0.450  0.8950  -34.2   6.764  153.6  0.0427   70.6  0.9482  -19.2
 0.500  0.8875  -37.9   6.681  150.6  0.0470   68.6  0.9370  -21.2
 0.600  0.8722  -45.3   6.517  145.1  0.0551   64.4  0.9140  -25.2
 0.700  0.8554  -52.5   6.334  139.8  0.0627   60.4  0.8879  -29.0
 0.800  0.8376  -59.4   6.113  134.7  0.0697   56.7  0.8609  -32.5
 0.900  0.8189  -66.3   5.907  129.8  0.0760   53.1  0.8324  -35.9
 1.000  0.8020  -73.1   5.696  125.1  0.0819   49.7  0.8037  -39.2
 1.100  0.7853  -79.5   5.482  120.7  0.0870   46.5  0.7753  -42.2
 1.200  0.7686  -85.9   5.272  116.3  0.0919   43.4  0.7465  -45.2
 1.300  0.7533  -92.0   5.068  112.3  0.0961   40.6  0.7193  -47.9
 1.400  0.7388  -98.1   4.875  108.3  0.0997   37.7  0.6918  -50.6
 1.500  0.7248 -103.7   4.690  104.7  0.1032   35.2  0.6659  -53.0
 1.600  0.7129 -109.3   4.510  101.0  0.1060   32.7  0.6406  -55.4
 1.700  0.7000 -114.8   4.344   97.5  0.1088   30.4  0.6167  -57.6
 1.800  0.6897 -119.9   4.169   94.2  0.1110   28.1  0.5941  -59.7
 1.900  0.6797 -125.2   4.019   91.0  0.1131   26.0  0.5711  -61.8
 2.000  0.6692 -129.8   3.870   88.0  0.1148   24.0  0.5508  -63.6
 2.200  0.6531 -139.5   3.605   82.0  0.1177   20.2  0.5106  -67.5
 2.400  0.6397 -148.8   3.359   76.4  0.1199   16.7  0.4733  -71.2
 2.600  0.6329 -157.8   3.143   71.1  0.1211   13.4  0.4389  -74.7
 2.800  0.6264 -166.1   2.941   66.2  0.1218   10.6  0.4078  -78.1
 3.000  0.6247 -173.9   2.765   61.4  0.1222    8.1  0.3799  -81.3
 3.500  0.6315  168.2   2.392   50.0  0.1216    2.5  0.3186  -90.6
 4.000  0.6464  153.1   2.093   39.6  0.1205   -1.6  0.2726 -100.8
 4.500  0.6613  141.0   1.837   29.8  0.1187   -5.1  0.2411 -112.4
 5.000  0.6690  131.6   1.624   21.4  0.1167   -7.3  0.2196 -123.7
 5.500  0.6786  123.0   1.458   13.5  0.1148   -8.9  0.2046 -135.7
 6.000  0.6953  114.9   1.328    5.9  0.1143   -9.5  0.1964 -148.9
 6.500  0.7145  107.7   1.223   -1.8  0.1162  -10.1  0.1943 -162.4
 7.000  0.7301  100.9   1.133   -9.5  0.1201  -10.8  0.1949 -175.4
 7.500  0.7414   94.0   1.051  -17.0  0.1252  -12.6  0.2028  170.9
 8.000  0.7509   86.3   0.965  -24.8  0.1292  -15.4  0.2171  156.3
 8.500  0.7607   78.3   0.877  -32.0  0.1304  -18.2  0.2367  140.3
 9.000  0.7897   71.4   0.805  -38.3  0.1314  -19.9  0.2772  125.5
 9.500  0.8402   66.1   0.745  -44.2  0.1338  -21.1  0.3396  115.7
10.000  0.8786   62.3   0.672  -50.3  0.1382  -22.7  0.4069  109.6
!
!  f       Fmin   Gammaopt  rn/50
! GHz       dB    MAG  ANG    -
 0.900      0.53  0.47   33   0.22
 1.800      1.03  0.29   77   0.17
 2.400      1.13  0.31  102   0.16
 3.000      1.32  0.31  136   0.12
 4.000      1.57  0.37 -168   0.10
 5.000      1.96  0.42 -129   0.28
 6.000      2.72  0.51 -111   0.37
!
! (c) 2009  Infineon Technologies AG, Munich