! Infineon Technologies  Discrete & RF Semiconductors
! BFP420
!
! VCE =  2.0 V,  IC =  2.0 mA
! Common Emitter S-Parameters:                            Nov 2009
# GHz  S  MA  R  50
!  f         S11            S21            S12            S22
! GHz     MAG   ANG      MAG   ANG      MAG   ANG      MAG   ANG
 0.010  0.9295   -1.6   7.046  179.3  0.0008   66.6  0.9943    0.0
 0.020  0.9288   -1.3   6.852  179.1  0.0022   91.3  0.9950   -0.8
 0.050  0.9273   -3.9   6.891  177.0  0.0054   88.4  0.9952   -2.2
 0.100  0.9262   -7.6   6.925  174.1  0.0103   85.3  0.9933   -4.5
 0.150  0.9245  -11.6   6.917  171.0  0.0154   83.6  0.9902   -6.8
 0.200  0.9233  -15.4   6.893  168.0  0.0206   81.3  0.9855   -9.1
 0.250  0.9170  -19.2   6.838  164.8  0.0256   79.2  0.9801  -11.2
 0.300  0.9131  -23.1   6.812  161.9  0.0305   76.9  0.9728  -13.5
 0.350  0.9076  -26.9   6.760  159.0  0.0354   74.6  0.9647  -15.7
 0.400  0.9026  -30.7   6.698  156.1  0.0401   72.4  0.9553  -17.8
 0.450  0.8958  -34.5   6.627  153.2  0.0448   70.2  0.9454  -20.0
 0.500  0.8883  -38.3   6.549  150.3  0.0493   68.1  0.9336  -22.1
 0.600  0.8719  -45.7   6.379  144.7  0.0579   63.9  0.9096  -26.2
 0.700  0.8551  -53.0   6.197  139.3  0.0658   59.9  0.8825  -30.1
 0.800  0.8371  -60.0   5.979  134.2  0.0731   56.1  0.8541  -33.7
 0.900  0.8187  -66.9   5.772  129.3  0.0796   52.4  0.8249  -37.2
 1.000  0.8018  -73.6   5.559  124.6  0.0857   49.0  0.7951  -40.6
 1.100  0.7850  -80.1   5.344  120.2  0.0911   45.8  0.7662  -43.7
 1.200  0.7688  -86.5   5.138  115.8  0.0960   42.6  0.7364  -46.7
 1.300  0.7535  -92.6   4.940  111.8  0.1003   39.7  0.7084  -49.6
 1.400  0.7392  -98.7   4.744  107.8  0.1041   36.9  0.6805  -52.3
 1.500  0.7259 -104.3   4.564  104.2  0.1077   34.3  0.6541  -54.8
 1.600  0.7137 -110.0   4.387  100.4  0.1105   31.8  0.6286  -57.2
 1.700  0.7006 -115.4   4.225   97.0  0.1133   29.4  0.6046  -59.5
 1.800  0.6906 -120.5   4.056   93.7  0.1155   27.2  0.5815  -61.6
 1.900  0.6811 -125.9   3.908   90.5  0.1177   25.0  0.5587  -63.9
 2.000  0.6715 -130.5   3.761   87.5  0.1195   23.1  0.5384  -65.8
 2.200  0.6553 -140.3   3.504   81.5  0.1224   19.2  0.4979  -69.8
 2.400  0.6427 -149.5   3.265   75.9  0.1245   15.6  0.4605  -73.6
 2.600  0.6353 -158.5   3.053   70.6  0.1257   12.4  0.4262  -77.3
 2.800  0.6289 -166.7   2.856   65.6  0.1264    9.5  0.3954  -80.9
 3.000  0.6283 -174.4   2.686   60.9  0.1266    6.8  0.3676  -84.4
 3.500  0.6351  167.7   2.323   49.5  0.1258    1.2  0.3075  -94.2
 4.000  0.6511  152.7   2.033   39.0  0.1243   -3.1  0.2631 -105.1
 4.500  0.6656  140.6   1.784   29.2  0.1221   -6.6  0.2337 -117.4
 5.000  0.6732  131.3   1.578   20.7  0.1197   -8.9  0.2146 -129.3
 5.500  0.6825  122.7   1.416   12.8  0.1175  -10.5  0.2025 -141.7
 6.000  0.6994  114.6   1.290    5.2  0.1166  -11.2  0.1972 -155.2
 6.500  0.7186  107.5   1.188   -2.4  0.1182  -11.8  0.1980 -168.6
 7.000  0.7340  100.7   1.101  -10.1  0.1218  -12.6  0.2013  178.5
 7.500  0.7449   93.8   1.022  -17.7  0.1266  -14.3  0.2120  165.4
 8.000  0.7542   86.1   0.938  -25.5  0.1304  -17.1  0.2288  151.5
 8.500  0.7641   78.1   0.852  -32.6  0.1313  -19.9  0.2508  136.5
 9.000  0.7922   71.3   0.781  -38.9  0.1321  -21.4  0.2930  122.7
 9.500  0.8422   66.0   0.723  -44.8  0.1343  -22.6  0.3561  113.5
10.000  0.8804   62.2   0.652  -50.8  0.1386  -24.1  0.4233  107.7
!
!  f       Fmin   Gammaopt  rn/50
! GHz       dB    MAG  ANG    -
 0.900      0.53  0.47   33   0.22
 1.800      1.03  0.29   77   0.17
 2.400      1.13  0.31  102   0.16
 3.000      1.32  0.31  136   0.12
 4.000      1.57  0.37 -168   0.10
 5.000      1.96  0.42 -129   0.28
 6.000      2.72  0.51 -111   0.37
!
! (c) 2009  Infineon Technologies AG, Munich