! Infineon Technologies  Discrete & RF Semiconductors
! BFP420
!
! VCE =  2.5 V,  IC =  1.5 mA
! Common Emitter S-Parameters:                            Nov 2009
# GHz  S  MA  R  50
!  f         S11            S21            S12            S22
! GHz     MAG   ANG      MAG   ANG      MAG   ANG      MAG   ANG
 0.010  0.9458   -1.5   5.376  179.3  0.0007  103.2  0.9963    0.0
 0.020  0.9480   -1.2   5.224  179.2  0.0020   89.5  0.9964   -0.7
 0.050  0.9434   -3.2   5.256  177.3  0.0049   87.1  0.9965   -1.9
 0.100  0.9428   -6.7   5.285  174.7  0.0099   86.6  0.9954   -3.8
 0.150  0.9436  -10.1   5.287  172.0  0.0149   84.0  0.9929   -5.8
 0.200  0.9421  -13.4   5.277  169.3  0.0198   82.1  0.9895   -7.7
 0.250  0.9391  -16.9   5.242  166.4  0.0246   80.3  0.9857   -9.6
 0.300  0.9354  -20.3   5.235  163.8  0.0295   78.3  0.9802  -11.5
 0.350  0.9313  -23.7   5.209  161.2  0.0343   76.2  0.9742  -13.3
 0.400  0.9277  -27.0   5.171  158.6  0.0390   74.2  0.9668  -15.1
 0.450  0.9217  -30.4   5.134  155.9  0.0436   72.3  0.9597  -16.9
 0.500  0.9158  -33.7   5.093  153.2  0.0481   70.4  0.9507  -18.8
 0.600  0.9047  -40.4   4.991  148.1  0.0568   66.4  0.9323  -22.3
 0.700  0.8901  -47.0   4.890  143.1  0.0651   62.6  0.9111  -25.7
 0.800  0.8762  -53.4   4.755  138.3  0.0728   58.9  0.8884  -29.0
 0.900  0.8604  -59.8   4.627  133.5  0.0799   55.4  0.8646  -32.2
 1.000  0.8455  -66.1   4.493  129.1  0.0866   52.0  0.8400  -35.2
 1.100  0.8313  -72.1   4.352  124.8  0.0927   48.8  0.8154  -38.1
 1.200  0.8162  -78.2   4.219  120.4  0.0984   45.5  0.7897  -40.9
 1.300  0.8020  -84.0   4.082  116.4  0.1035   42.5  0.7654  -43.5
 1.400  0.7879  -89.9   3.949  112.4  0.1081   39.5  0.7407  -46.1
 1.500  0.7753  -95.3   3.823  108.8  0.1123   36.8  0.7164  -48.5
 1.600  0.7634 -100.8   3.697  105.0  0.1158   34.1  0.6929  -50.7
 1.700  0.7498 -106.3   3.582  101.5  0.1194   31.5  0.6704  -52.9
 1.800  0.7388 -111.3   3.454   98.1  0.1222   29.0  0.6488  -54.9
 1.900  0.7287 -116.6   3.349   94.7  0.1249   26.6  0.6267  -57.1
 2.000  0.7177 -121.3   3.237   91.6  0.1271   24.4  0.6070  -58.9
 2.200  0.6990 -131.0   3.040   85.4  0.1309   20.1  0.5674  -62.6
 2.400  0.6835 -140.5   2.853   79.5  0.1338   15.9  0.5303  -66.2
 2.600  0.6732 -149.7   2.684   73.9  0.1354   12.0  0.4958  -69.6
 2.800  0.6636 -158.3   2.524   68.7  0.1361    8.6  0.4643  -72.9
 3.000  0.6592 -166.4   2.385   63.7  0.1363    5.4  0.4358  -76.0
 3.500  0.6605  174.5   2.080   51.6  0.1346   -1.6  0.3729  -84.5
 4.000  0.6718  158.4   1.832   40.6  0.1315   -6.9  0.3252  -93.6
 4.500  0.6838  145.5   1.613   30.2  0.1271  -11.4  0.2907 -103.9
 5.000  0.6897  135.3   1.429   21.4  0.1219  -14.5  0.2665 -113.9
 5.500  0.6976  126.1   1.284   13.2  0.1167  -16.4  0.2477 -124.6
 6.000  0.7129  117.6   1.171    5.3  0.1128  -16.9  0.2355 -136.3
 6.500  0.7319  110.0   1.078   -2.6  0.1118  -16.9  0.2296 -148.5
 7.000  0.7468  102.9   1.000  -10.4  0.1132  -16.7  0.2263 -161.0
 7.500  0.7578   95.6   0.929  -18.1  0.1164  -17.3  0.2290 -174.8
 8.000  0.7657   87.6   0.852  -26.0  0.1193  -19.0  0.2371  170.3
 8.500  0.7738   79.4   0.775  -33.2  0.1202  -20.8  0.2489  153.7
 9.000  0.8007   72.3   0.711  -39.6  0.1212  -21.5  0.2824  137.1
 9.500  0.8503   66.9   0.657  -45.5  0.1240  -21.8  0.3427  125.1
10.000  0.8888   63.0   0.592  -51.7  0.1290  -22.7  0.4127  117.5
!
!  f       Fmin   Gammaopt  rn/50
! GHz       dB    MAG  ANG    -
 0.900      0.52  0.55   33   0.27
 1.800      1.07  0.35   77   0.21
 2.400      1.18  0.36  101   0.18
 3.000      1.41  0.36  134   0.13
 4.000      1.68  0.40 -172   0.10
 5.000      2.08  0.44 -130   0.32
 6.000      2.89  0.57 -114   0.39
!
! (c) 2009  Infineon Technologies AG, Munich