! Infineon Technologies  Discrete & RF Semiconductors
! BFP420
!
! VCE =  2.5 V,  IC =  8.0 mA
! Common Emitter S-Parameters:                            Nov 2009
# GHz  S  MA  R  50
!  f         S11            S21            S12            S22
! GHz     MAG   ANG      MAG   ANG      MAG   ANG      MAG   ANG
 0.010  0.7666   -1.9  23.169  179.0  0.0011   77.6  0.9753    0.6
 0.020  0.7570   -3.2  22.609  177.7  0.0017   85.4  0.9818   -1.7
 0.050  0.7522   -7.6  22.585  174.3  0.0043   82.4  0.9808   -4.4
 0.100  0.7499  -15.6  22.488  168.9  0.0087   83.2  0.9738   -8.9
 0.150  0.7418  -23.1  22.127  163.6  0.0130   78.9  0.9603  -13.3
 0.200  0.7334  -30.6  21.672  158.4  0.0171   75.2  0.9419  -17.6
 0.250  0.7180  -38.0  21.048  153.3  0.0209   71.9  0.9201  -21.6
 0.300  0.7047  -45.1  20.480  148.5  0.0244   69.0  0.8951  -25.5
 0.350  0.6895  -51.9  19.812  144.1  0.0277   66.0  0.8680  -29.2
 0.400  0.6749  -58.4  19.103  139.7  0.0307   63.3  0.8395  -32.7
 0.450  0.6586  -64.7  18.380  135.6  0.0335   60.8  0.8107  -35.9
 0.500  0.6436  -70.7  17.653  131.7  0.0359   58.6  0.7816  -38.9
 0.600  0.6158  -82.1  16.259  124.6  0.0403   54.6  0.7250  -44.5
 0.700  0.5911  -92.4  14.943  118.3  0.0439   51.2  0.6718  -49.4
 0.800  0.5699 -101.6  13.727  112.8  0.0470   48.7  0.6234  -53.6
 0.900  0.5530 -110.2  12.657  107.8  0.0497   46.4  0.5797  -57.5
 1.000  0.5397 -118.2  11.701  103.3  0.0521   44.7  0.5399  -61.1
 1.100  0.5287 -125.3  10.844   99.2  0.0543   43.2  0.5050  -64.2
 1.200  0.5199 -131.9  10.079   95.4  0.0564   42.0  0.4721  -67.4
 1.300  0.5132 -137.9   9.402   92.0  0.0584   40.9  0.4438  -70.2
 1.400  0.5082 -143.7   8.796   88.7  0.0602   40.0  0.4175  -72.9
 1.500  0.5042 -148.9   8.264   85.8  0.0620   39.2  0.3935  -75.5
 1.600  0.5021 -153.7   7.774   82.9  0.0638   38.5  0.3722  -78.0
 1.700  0.4987 -158.5   7.341   80.2  0.0655   37.8  0.3521  -80.5
 1.800  0.4976 -162.7   6.938   77.7  0.0673   37.2  0.3342  -82.8
 1.900  0.4969 -167.0   6.577   75.2  0.0690   36.6  0.3165  -85.5
 2.000  0.4949 -170.9   6.251   72.9  0.0707   36.1  0.3011  -87.5
 2.200  0.4944 -178.5   5.684   68.4  0.0742   35.0  0.2720  -92.6
 2.400  0.4974  174.6   5.197   64.1  0.0776   33.8  0.2460  -98.1
 2.600  0.5046  168.0   4.786   60.0  0.0809   32.7  0.2232 -103.9
 2.800  0.5097  162.2   4.422   56.3  0.0843   31.7  0.2035 -110.0
 3.000  0.5190  156.8   4.113   52.6  0.0876   30.6  0.1865 -116.4
 3.500  0.5464  144.2   3.484   43.7  0.0959   27.7  0.1567 -136.4
 4.000  0.5737  133.5   3.006   35.4  0.1043   24.5  0.1467 -158.1
 4.500  0.5953  125.0   2.619   27.5  0.1120   21.0  0.1530 -177.3
 5.000  0.6082  118.4   2.311   20.5  0.1194   17.7  0.1629  168.0
 5.500  0.6230  111.8   2.073   13.9  0.1264   14.4  0.1772  155.5
 6.000  0.6427  105.4   1.884    7.2  0.1337   11.1  0.1953  144.3
 6.500  0.6647   99.7   1.729    0.4  0.1416    7.3  0.2139  134.8
 7.000  0.6807   94.0   1.599   -6.6  0.1502    3.3  0.2288  125.9
 7.500  0.6928   88.1   1.484  -13.6  0.1584   -1.5  0.2505  117.9
 8.000  0.7054   81.3   1.360  -20.9  0.1637   -7.0  0.2783  109.7
 8.500  0.7225   74.2   1.234  -27.6  0.1646  -12.0  0.3130  100.6
 9.000  0.7563   68.0   1.130  -33.3  0.1649  -15.5  0.3623   93.1
 9.500  0.8085   63.3   1.051  -38.7  0.1666  -18.7  0.4220   88.3
10.000  0.8494   59.9   0.953  -44.3  0.1690  -22.0  0.4755   84.9
!
!  f       Fmin   Gammaopt  rn/50
! GHz       dB    MAG  ANG    -
 0.900      0.79  0.08   30   0.13
 1.800      1.14  0.06  171   0.12
 2.400      1.24  0.10  160   0.13
 3.000      1.32  0.17 -165   0.12
 4.000      1.46  0.32 -132   0.14
 5.000      1.85  0.39 -110   0.25
 6.000      2.30  0.46  -95   0.37
!
! (c) 2009  Infineon Technologies AG, Munich