! Infineon Technologies  Discrete & RF Semiconductors
! BFP420
!
! VCE =  2.0 V,  IC =  20 mA
! Common Emitter S-Parameters:                            Nov 2009
# GHz  S  MA  R  50
!  f         S11            S21            S12            S22
! GHz     MAG   ANG      MAG   ANG      MAG   ANG      MAG   ANG
 0.010  0.5353   -3.6  41.585  179.1  0.0009   97.7  0.9429    1.6
 0.020  0.5256   -6.0  40.755  176.5  0.0017   90.2  0.9550   -2.4
 0.050  0.5235  -14.0  40.479  171.3  0.0040   85.7  0.9546   -7.0
 0.100  0.5204  -28.4  39.629  162.9  0.0079   79.1  0.9353  -14.5
 0.150  0.5116  -41.5  37.977  154.9  0.0113   74.9  0.9015  -21.5
 0.200  0.5040  -53.8  36.020  147.7  0.0145   70.8  0.8591  -27.9
 0.250  0.4910  -65.3  33.774  141.0  0.0173   66.9  0.8129  -33.6
 0.300  0.4822  -75.8  31.690  135.0  0.0197   64.0  0.7652  -38.7
 0.350  0.4740  -85.3  29.604  129.8  0.0218   61.5  0.7188  -43.3
 0.400  0.4668  -93.6  27.628  125.0  0.0237   59.3  0.6754  -47.3
 0.450  0.4600 -101.3  25.783  120.7  0.0254   57.7  0.6346  -50.8
 0.500  0.4554 -108.3  24.087  116.9  0.0269   56.5  0.5971  -54.1
 0.600  0.4475 -120.4  21.155  110.1  0.0296   54.6  0.5325  -59.7
 0.700  0.4439 -130.4  18.734  104.6  0.0321   53.5  0.4789  -64.4
 0.800  0.4418 -138.8  16.723   99.8  0.0345   52.8  0.4345  -68.6
 0.900  0.4407 -146.0  15.072   95.6  0.0368   52.3  0.3974  -72.4
 1.000  0.4427 -152.4  13.678   91.9  0.0391   52.1  0.3654  -76.1
 1.100  0.4435 -157.8  12.490   88.6  0.0414   51.9  0.3385  -79.4
 1.200  0.4457 -162.8  11.473   85.5  0.0437   51.7  0.3145  -82.9
 1.300  0.4481 -167.3  10.599   82.7  0.0461   51.5  0.2940  -86.1
 1.400  0.4512 -171.4   9.840   80.0  0.0484   51.2  0.2759  -89.5
 1.500  0.4524 -175.3   9.180   77.6  0.0509   51.0  0.2594  -92.6
 1.600  0.4556 -178.6   8.590   75.2  0.0533   50.6  0.2455  -95.9
 1.700  0.4580  177.8   8.073   73.0  0.0557   50.2  0.2323  -99.3
 1.800  0.4600  174.9   7.600   70.9  0.0582   49.8  0.2207 -102.3
 1.900  0.4632  171.7   7.177   68.8  0.0605   49.3  0.2100 -106.2
 2.000  0.4650  169.0   6.806   66.9  0.0631   48.8  0.2002 -109.1
 2.200  0.4702  163.3   6.154   63.0  0.0679   47.6  0.1835 -116.7
 2.400  0.4776  158.1   5.609   59.4  0.0727   46.3  0.1702 -125.1
 2.600  0.4879  153.3   5.148   55.8  0.0774   44.8  0.1603 -134.1
 2.800  0.4970  148.9   4.749   52.5  0.0821   43.4  0.1536 -143.1
 3.000  0.5072  144.8   4.406   49.2  0.0868   41.8  0.1497 -152.2
 3.500  0.5384  134.7   3.719   41.1  0.0980   37.5  0.1549 -174.9
 4.000  0.5679  125.9   3.200   33.5  0.1088   33.0  0.1736  167.2
 4.500  0.5907  118.9   2.785   26.2  0.1186   28.3  0.1975  154.3
 5.000  0.6035  113.3   2.459   19.7  0.1277   24.0  0.2168  144.6
 5.500  0.6185  107.5   2.206   13.4  0.1362   19.7  0.2377  136.2
 6.000  0.6389  101.8   2.004    7.1  0.1449   15.5  0.2610  128.3
 6.500  0.6608   96.5   1.837    0.5  0.1537   10.8  0.2825  121.0
 7.000  0.6769   91.3   1.698   -6.2  0.1628    6.0  0.2987  113.6
 7.500  0.6884   85.6   1.575  -13.0  0.1713    0.5  0.3203  107.0
 8.000  0.7015   79.3   1.443  -20.1  0.1763   -5.6  0.3478  100.3
 8.500  0.7203   72.5   1.308  -26.6  0.1765  -10.9  0.3818   92.9
 9.000  0.7547   66.5   1.195  -32.0  0.1765  -14.8  0.4301   86.6
 9.500  0.8075   62.0   1.111  -37.1  0.1780  -18.3  0.4881   82.3
10.000  0.8469   58.8   1.007  -42.3  0.1796  -22.0  0.5379   78.8
!
!  f       Fmin   Gammaopt  rn/50
! GHz       dB    MAG  ANG    -
 0.900      1.23  0.16 -154   0.13
 1.800      1.51  0.24 -144   0.13
 2.400      1.66  0.22 -141   0.15
 3.000      1.69  0.30 -132   0.16
 4.000      1.82  0.42 -115   0.23
 5.000      2.28  0.48  -96   0.37
 6.000      2.65  0.52  -86   0.56
!
! (c) 2009  Infineon Technologies AG, Munich