! Infineon Technologies  Discrete & RF Semiconductors
! BFP420
!
! VCE =  2.5 V,  IC =  4.0 mA
! Common Emitter S-Parameters:                            Nov 2009
# GHz  S  MA  R  50
!  f         S11            S21            S12            S22
! GHz     MAG   ANG      MAG   ANG      MAG   ANG      MAG   ANG
 0.010  0.8632   -1.6  13.174  179.2  0.0008  104.5  0.9880    0.1
 0.020  0.8642   -2.3  12.842  178.6  0.0021   86.0  0.9909   -1.2
 0.050  0.8602   -5.3  12.873  175.9  0.0048   87.8  0.9902   -3.0
 0.100  0.8604  -10.5  12.905  172.1  0.0093   83.8  0.9872   -6.1
 0.150  0.8576  -15.8  12.825  168.2  0.0140   81.6  0.9813   -9.1
 0.200  0.8538  -20.9  12.713  164.4  0.0186   78.8  0.9727  -12.1
 0.250  0.8440  -26.1  12.532  160.4  0.0231   76.1  0.9623  -15.0
 0.300  0.8355  -31.3  12.387  156.8  0.0273   73.6  0.9492  -18.0
 0.350  0.8254  -36.3  12.190  153.2  0.0315   70.9  0.9350  -20.8
 0.400  0.8166  -41.2  11.963  149.6  0.0354   68.4  0.9186  -23.5
 0.450  0.8042  -46.1  11.728  146.1  0.0392   66.0  0.9016  -26.2
 0.500  0.7922  -50.9  11.468  142.7  0.0428   63.6  0.8831  -28.8
 0.600  0.7675  -60.2  10.939  136.1  0.0493   59.2  0.8448  -33.7
 0.700  0.7421  -69.0  10.385  130.1  0.0549   55.1  0.8044  -38.2
 0.800  0.7189  -77.3   9.811  124.6  0.0599   51.5  0.7646  -42.3
 0.900  0.6964  -85.3   9.276  119.3  0.0642   48.1  0.7259  -46.1
 1.000  0.6765  -92.9   8.762  114.5  0.0680   45.2  0.6882  -49.7
 1.100  0.6584  -99.9   8.270  110.1  0.0712   42.6  0.6531  -53.0
 1.200  0.6421 -106.9   7.816  105.8  0.0741   40.1  0.6191  -56.1
 1.300  0.6283 -113.3   7.392  101.9  0.0767   37.9  0.5882  -59.0
 1.400  0.6162 -119.5   7.000   98.2  0.0790   35.9  0.5587  -61.7
 1.500  0.6045 -125.2   6.644   94.8  0.0810   34.1  0.5309  -64.2
 1.600  0.5963 -130.8   6.308   91.4  0.0828   32.4  0.5055  -66.6
 1.700  0.5867 -136.2   6.007   88.3  0.0845   30.9  0.4813  -69.0
 1.800  0.5807 -141.1   5.708   85.3  0.0860   29.5  0.4593  -71.1
 1.900  0.5745 -146.1   5.449   82.5  0.0874   28.2  0.4375  -73.4
 2.000  0.5678 -150.5   5.205   79.8  0.0888   27.0  0.4184  -75.3
 2.200  0.5591 -159.5   4.775   74.5  0.0912   24.8  0.3814  -79.4
 2.400  0.5544 -168.0   4.399   69.6  0.0934   22.7  0.3477  -83.6
 2.600  0.5556 -176.1   4.071   64.9  0.0952   21.0  0.3173  -87.8
 2.800  0.5563  176.8   3.779   60.7  0.0968   19.4  0.2903  -92.1
 3.000  0.5609  170.2   3.530   56.5  0.0985   18.0  0.2662  -96.3
 3.500  0.5797  155.0   3.011   46.5  0.1024   14.9  0.2156 -109.4
 4.000  0.6029  142.2   2.610   37.3  0.1066   12.2  0.1817 -124.8
 4.500  0.6212  132.1   2.279   28.6  0.1106    9.6  0.1647 -141.9
 5.000  0.6326  124.2   2.012   21.0  0.1145    7.4  0.1572 -157.3
 5.500  0.6451  116.7   1.804   13.8  0.1185    5.2  0.1576 -172.7
 6.000  0.6634  109.5   1.641    6.7  0.1231    3.3  0.1642  172.5
 6.500  0.6846  103.3   1.508   -0.5  0.1292    0.8  0.1749  159.7
 7.000  0.7004   97.1   1.396   -7.8  0.1363   -1.9  0.1854  148.3
 7.500  0.7117   90.7   1.295  -15.0  0.1437   -5.6  0.2038  137.4
 8.000  0.7237   83.5   1.189  -22.7  0.1488  -10.2  0.2289  126.4
 8.500  0.7376   76.0   1.079  -29.5  0.1501  -14.4  0.2605  114.5
 9.000  0.7691   69.5   0.990  -35.6  0.1508  -17.4  0.3088  104.4
 9.500  0.8211   64.6   0.919  -41.3  0.1528  -19.8  0.3705   98.2
10.000  0.8609   61.0   0.831  -47.1  0.1559  -22.5  0.4297   94.3
!
!  f       Fmin   Gammaopt  rn/50
! GHz       dB    MAG  ANG    -
 0.900      0.61  0.27   32   0.16
 1.800      1.03  0.14   83   0.13
 2.400      1.11  0.17  110   0.14
 3.000      1.23  0.20  153   0.11
 4.000      1.42  0.31 -151   0.11
 5.000      1.77  0.38 -123   0.23
 6.000      2.35  0.47 -104   0.33
!
! (c) 2009  Infineon Technologies AG, Munich