! Infineon Technologies  Discrete & RF Semiconductors
! BFP420
!
! VCE =  2.0 V,  IC =  35 mA
! Common Emitter S-Parameters:                            Nov 2009
# GHz  S  MA  R  50
!  f         S11            S21            S12            S22
! GHz     MAG   ANG      MAG   ANG      MAG   ANG      MAG   ANG
 0.010  0.3519   -5.5  52.327  179.5  0.0013  115.6  0.9044    2.8
 0.020  0.3517   -8.8  51.394  176.0  0.0017   96.1  0.9261   -2.3
 0.050  0.3522  -21.9  50.963  169.6  0.0036   84.5  0.9294   -8.1
 0.100  0.3583  -42.4  49.247  159.3  0.0069   78.4  0.9025  -17.3
 0.150  0.3631  -60.5  46.246  150.0  0.0098   73.4  0.8543  -25.6
 0.200  0.3717  -76.1  42.871  141.8  0.0123   69.4  0.7975  -32.7
 0.250  0.3764  -89.6  39.294  134.5  0.0145   66.2  0.7394  -38.7
 0.300  0.3818 -101.2  36.103  128.4  0.0163   63.9  0.6834  -43.9
 0.350  0.3884 -110.6  33.103  123.1  0.0180   62.1  0.6323  -48.2
 0.400  0.3933 -118.7  30.421  118.4  0.0195   60.9  0.5867  -52.0
 0.450  0.3975 -125.7  28.023  114.4  0.0209   60.0  0.5457  -55.3
 0.500  0.4023 -131.8  25.900  110.7  0.0222   59.5  0.5096  -58.2
 0.600  0.4092 -141.9  22.365  104.5  0.0247   58.9  0.4495  -63.3
 0.700  0.4156 -150.0  19.571   99.5  0.0272   58.7  0.4020  -67.5
 0.800  0.4206 -156.6  17.327   95.1  0.0296   58.7  0.3636  -71.2
 0.900  0.4263 -162.3  15.520   91.4  0.0321   58.7  0.3321  -74.7
 1.000  0.4316 -167.2  14.010   88.0  0.0346   58.7  0.3051  -78.3
 1.100  0.4353 -171.4  12.750   85.0  0.0371   58.6  0.2828  -81.4
 1.200  0.4406 -175.4  11.683   82.2  0.0397   58.4  0.2629  -85.0
 1.300  0.4445 -179.0  10.764   79.6  0.0423   58.1  0.2460  -88.2
 1.400  0.4487  177.8   9.974   77.2  0.0449   57.8  0.2313  -91.7
 1.500  0.4514  174.8   9.293   75.0  0.0475   57.4  0.2176  -95.0
 1.600  0.4561  172.1   8.685   72.8  0.0501   56.9  0.2065  -98.4
 1.700  0.4591  169.2   8.155   70.7  0.0528   56.4  0.1957 -102.0
 1.800  0.4609  166.8   7.671   68.7  0.0555   55.8  0.1864 -105.2
 1.900  0.4658  164.1   7.239   66.8  0.0581   55.1  0.1779 -109.5
 2.000  0.4671  161.8   6.861   64.9  0.0607   54.5  0.1699 -112.6
 2.200  0.4736  157.0   6.198   61.3  0.0659   52.9  0.1569 -120.9
 2.400  0.4818  152.4   5.645   57.8  0.0710   51.3  0.1472 -130.1
 2.600  0.4919  148.2   5.175   54.4  0.0760   49.5  0.1408 -139.7
 2.800  0.5012  144.3   4.775   51.2  0.0811   47.9  0.1375 -149.4
 3.000  0.5120  140.6   4.430   48.0  0.0860   46.0  0.1367 -158.7
 3.500  0.5441  131.5   3.736   40.2  0.0977   41.2  0.1487  178.8
 4.000  0.5738  123.3   3.214   32.8  0.1090   36.3  0.1718  162.1
 4.500  0.5957  116.8   2.798   25.6  0.1191   31.2  0.1980  150.4
 5.000  0.6086  111.6   2.471   19.3  0.1286   26.6  0.2187  141.3
 5.500  0.6234  106.0   2.217   13.1  0.1374   22.0  0.2405  133.5
 6.000  0.6436  100.5   2.016    6.8  0.1463   17.5  0.2647  126.1
 6.500  0.6653   95.4   1.847    0.3  0.1553   12.6  0.2867  119.1
 7.000  0.6813   90.3   1.708   -6.3  0.1647    7.6  0.3033  111.9
 7.500  0.6923   84.8   1.583  -13.1  0.1732    1.9  0.3250  105.5
 8.000  0.7058   78.6   1.450  -20.2  0.1782   -4.3  0.3524   99.0
 8.500  0.7239   71.9   1.314  -26.6  0.1784   -9.7  0.3866   91.8
 9.000  0.7585   66.0   1.201  -32.0  0.1783  -13.6  0.4350   85.7
 9.500  0.8104   61.6   1.117  -37.0  0.1798  -17.2  0.4931   81.5
10.000  0.8504   58.4   1.012  -42.2  0.1814  -21.0  0.5426   78.1
!
!  f       Fmin   Gammaopt  rn/50
! GHz       dB    MAG  ANG    -
 0.900      1.64  0.30 -155   0.13
 1.800      1.90  0.37 -142   0.15
 2.400      2.10  0.34 -134   0.19
 3.000      2.11  0.40 -126   0.22
 4.000      2.25  0.50 -110   0.35
 5.000      2.73  0.54  -94   0.59
 6.000      3.16  0.59  -82   0.84
!
! (c) 2009  Infineon Technologies AG, Munich