! Infineon Technologies  Discrete & RF Semiconductors
! BFP420
!
! VCE =  2.5 V,  IC =  30 mA
! Common Emitter S-Parameters:                            Nov 2009
# GHz  S  MA  R  50
!  f         S11            S21            S12            S22
! GHz     MAG   ANG      MAG   ANG      MAG   ANG      MAG   ANG
 0.010  0.4028   -4.8  49.947  179.2  0.0012  110.4  0.9203    2.5
 0.020  0.4036   -7.2  48.928  176.0  0.0017   98.7  0.9391   -2.2
 0.050  0.4024  -18.0  48.438  170.1  0.0037   85.7  0.9425   -7.4
 0.100  0.4042  -35.7  46.997  160.6  0.0068   78.9  0.9187  -15.7
 0.150  0.4028  -51.9  44.484  151.8  0.0098   74.4  0.8761  -23.3
 0.200  0.4036  -66.2  41.605  144.0  0.0124   70.0  0.8251  -29.8
 0.250  0.3995  -79.3  38.464  137.0  0.0146   66.8  0.7714  -35.5
 0.300  0.4003  -90.4  35.624  130.9  0.0165   64.3  0.7185  -40.5
 0.350  0.4007 -100.4  32.897  125.6  0.0183   62.5  0.6691  -44.7
 0.400  0.4020 -108.8  30.402  120.9  0.0198   61.0  0.6241  -48.3
 0.450  0.4017 -116.3  28.135  116.8  0.0213   60.0  0.5832  -51.5
 0.500  0.4030 -122.8  26.102  113.0  0.0226   59.2  0.5466  -54.3
 0.600  0.4057 -133.9  22.679  106.6  0.0251   58.2  0.4849  -59.2
 0.700  0.4098 -142.9  19.936  101.4  0.0275   57.8  0.4353  -63.2
 0.800  0.4121 -150.1  17.696   96.9  0.0298   57.6  0.3950  -66.7
 0.900  0.4166 -156.3  15.886   93.0  0.0322   57.6  0.3615  -69.8
 1.000  0.4202 -161.9  14.373   89.5  0.0347   57.5  0.3327  -73.1
 1.100  0.4233 -166.6  13.094   86.4  0.0371   57.4  0.3088  -75.9
 1.200  0.4284 -171.0  12.007   83.5  0.0395   57.3  0.2871  -79.0
 1.300  0.4315 -174.8  11.077   80.9  0.0420   57.0  0.2687  -81.8
 1.400  0.4361 -178.4  10.272   78.4  0.0445   56.8  0.2524  -84.9
 1.500  0.4383  178.3   9.574   76.1  0.0471   56.4  0.2373  -87.8
 1.600  0.4422  175.4   8.951   73.8  0.0496   56.0  0.2247  -90.8
 1.700  0.4455  172.2   8.409   71.7  0.0521   55.5  0.2124  -93.8
 1.800  0.4483  169.7   7.909   69.7  0.0547   54.9  0.2017  -96.7
 1.900  0.4522  166.8   7.468   67.7  0.0572   54.3  0.1916 -100.4
 2.000  0.4538  164.4   7.079   65.8  0.0598   53.7  0.1823 -103.1
 2.200  0.4603  159.2   6.398   62.1  0.0649   52.3  0.1660 -110.5
 2.400  0.4677  154.6   5.828   58.6  0.0699   50.7  0.1526 -118.7
 2.600  0.4786  150.0   5.345   55.1  0.0747   49.0  0.1423 -127.8
 2.800  0.4873  145.9   4.931   51.9  0.0796   47.5  0.1350 -137.2
 3.000  0.4987  142.1   4.574   48.8  0.0845   45.7  0.1305 -146.8
 3.500  0.5310  132.8   3.861   41.0  0.0960   41.0  0.1344 -171.8
 4.000  0.5606  124.4   3.321   33.4  0.1071   36.2  0.1530  168.8
 4.500  0.5834  117.7   2.892   26.3  0.1170   31.2  0.1776  155.2
 5.000  0.5970  112.4   2.554   19.9  0.1264   26.7  0.1977  145.0
 5.500  0.6125  106.7   2.291   13.7  0.1352   22.2  0.2192  136.5
 6.000  0.6331  101.1   2.084    7.4  0.1440   17.8  0.2431  128.4
 6.500  0.6550   96.0   1.909    0.9  0.1529   12.9  0.2650  121.1
 7.000  0.6719   90.9   1.765   -5.8  0.1622    8.0  0.2815  113.6
 7.500  0.6834   85.4   1.636  -12.6  0.1708    2.4  0.3034  106.9
 8.000  0.6973   79.1   1.500  -19.6  0.1759   -3.7  0.3313  100.3
 8.500  0.7164   72.3   1.359  -26.0  0.1763   -9.2  0.3664   92.8
 9.000  0.7518   66.4   1.243  -31.5  0.1764  -13.1  0.4157   86.5
 9.500  0.8043   62.0   1.157  -36.6  0.1780  -16.7  0.4743   82.3
10.000  0.8453   58.7   1.049  -41.9  0.1798  -20.5  0.5247   78.9
!
!  f       Fmin   Gammaopt  rn/50
! GHz       dB    MAG  ANG    -
 0.900      1.51  0.26 -155   0.13
 1.800      1.78  0.33 -142   0.14
 2.400      1.96  0.30 -136   0.18
 3.000      1.98  0.38 -127   0.20
 4.000      2.11  0.47 -111   0.31
 5.000      2.57  0.53  -94   0.51
 6.000      3.00  0.57  -82   0.74
!
! (c) 2009  Infineon Technologies AG, Munich