! Infineon Technologies  Discrete & RF Semiconductors
! BFP420
!
! VCE =  2.0 V,  IC =  6.0 mA
! Common Emitter S-Parameters:                            Nov 2009
# GHz  S  MA  R  50
!  f         S11            S21            S12            S22
! GHz     MAG   ANG      MAG   ANG      MAG   ANG      MAG   ANG
 0.010  0.8100   -1.6  18.478  179.2  0.0009   80.3  0.9819    0.3
 0.020  0.8064   -2.9  18.036  178.2  0.0019   87.7  0.9858   -1.6
 0.050  0.8027   -6.4  18.051  175.0  0.0047   86.3  0.9852   -3.9
 0.100  0.8020  -13.6  18.045  170.2  0.0096   83.2  0.9797   -8.0
 0.150  0.7942  -20.2  17.839  165.4  0.0142   80.2  0.9694  -12.0
 0.200  0.7873  -26.7  17.567  160.8  0.0187   76.7  0.9551  -15.9
 0.250  0.7750  -33.2  17.167  156.1  0.0230   73.5  0.9382  -19.6
 0.300  0.7630  -39.6  16.826  151.7  0.0271   70.4  0.9179  -23.3
 0.350  0.7492  -45.8  16.385  147.5  0.0309   67.6  0.8956  -26.8
 0.400  0.7363  -51.6  15.917  143.4  0.0344   64.7  0.8713  -30.1
 0.450  0.7211  -57.5  15.433  139.5  0.0378   62.2  0.8467  -33.2
 0.500  0.7070  -63.1  14.925  135.7  0.0408   59.8  0.8208  -36.3
 0.600  0.6786  -73.7  13.928  128.7  0.0461   55.3  0.7695  -41.9
 0.700  0.6519  -83.7  12.955  122.4  0.0506   51.6  0.7193  -46.9
 0.800  0.6289  -92.7  12.017  116.8  0.0544   48.4  0.6721  -51.4
 0.900  0.6090 -101.2  11.171  111.6  0.0576   45.6  0.6283  -55.5
 1.000  0.5921 -109.2  10.403  107.0  0.0605   43.3  0.5879  -59.3
 1.100  0.5787 -116.3   9.695  102.7  0.0630   41.3  0.5515  -62.7
 1.200  0.5670 -123.2   9.057   98.7  0.0653   39.5  0.5170  -66.1
 1.300  0.5571 -129.4   8.483   95.1  0.0674   38.0  0.4865  -69.0
 1.400  0.5494 -135.4   7.963   91.7  0.0692   36.6  0.4585  -72.0
 1.500  0.5428 -140.9   7.505   88.6  0.0711   35.5  0.4326  -74.7
 1.600  0.5384 -146.0   7.079   85.5  0.0727   34.4  0.4093  -77.4
 1.700  0.5338 -151.1   6.702   82.7  0.0744   33.4  0.3874  -79.9
 1.800  0.5303 -155.6   6.343   79.9  0.0759   32.5  0.3678  -82.3
 1.900  0.5281 -160.2   6.028   77.3  0.0775   31.7  0.3487  -85.0
 2.000  0.5244 -164.2   5.737   74.9  0.0790   30.9  0.3318  -87.1
 2.200  0.5221 -172.4   5.229   70.1  0.0819   29.5  0.3000  -92.2
 2.400  0.5227  180.0   4.793   65.7  0.0848   28.2  0.2717  -97.5
 2.600  0.5277  173.0   4.419   61.3  0.0875   26.9  0.2468 -103.2
 2.800  0.5314  166.8   4.089   57.4  0.0902   25.8  0.2251 -109.0
 3.000  0.5395  161.0   3.806   53.6  0.0929   24.7  0.2065 -115.1
 3.500  0.5641  147.5   3.231   44.3  0.0996   21.9  0.1727 -133.8
 4.000  0.5904  136.1   2.792   35.6  0.1066   19.1  0.1586 -154.1
 4.500  0.6106  127.1   2.433   27.4  0.1131   15.9  0.1612 -172.8
 5.000  0.6225  120.1   2.147   20.2  0.1194   13.1  0.1685  172.6
 5.500  0.6360  113.2   1.926   13.4  0.1253   10.3  0.1808  159.8
 6.000  0.6557  106.5   1.752    6.6  0.1318    7.4  0.1973  148.4
 6.500  0.6761  100.6   1.607   -0.4  0.1393    4.1  0.2148  138.6
 7.000  0.6925   94.8   1.487   -7.5  0.1473    0.5  0.2294  129.5
 7.500  0.7041   88.7   1.380  -14.6  0.1553   -4.0  0.2509  121.1
 8.000  0.7161   81.8   1.265  -22.0  0.1603   -9.2  0.2784  112.6
 8.500  0.7318   74.6   1.148  -28.7  0.1611  -13.9  0.3120  103.2
 9.000  0.7644   68.3   1.051  -34.5  0.1615  -17.2  0.3607   95.3
 9.500  0.8161   63.5   0.976  -40.0  0.1632  -20.1  0.4207   90.3
10.000  0.8553   60.1   0.885  -45.6  0.1656  -23.3  0.4753   86.8
!
!  f       Fmin   Gammaopt  rn/50
! GHz       dB    MAG  ANG    -
 0.900      0.70  0.16   29   0.14
 1.800      1.08  0.06  113   0.12
 2.400      1.17  0.11  132   0.13
 3.000      1.26  0.17  176   0.11
 4.000      1.43  0.31 -139   0.13
 5.000      1.82  0.38 -115   0.24
 6.000      2.30  0.43  -99   0.37
!
! (c) 2009  Infineon Technologies AG, Munich