! Infineon Technologies  Discrete & RF Semiconductors
! BFP420
!
! VCE =  2.0 V,  IC =  9.0 mA
! Common Emitter S-Parameters:                            Nov 2009
# GHz  S  MA  R  50
!  f         S11            S21            S12            S22
! GHz     MAG   ANG      MAG   ANG      MAG   ANG      MAG   ANG
 0.010  0.7402   -2.3  25.216  179.1  0.0011   90.6  0.9719    0.6
 0.020  0.7318   -3.5  24.656  177.6  0.0019   85.0  0.9790   -1.8
 0.050  0.7224   -8.7  24.631  173.9  0.0048   84.9  0.9785   -4.9
 0.100  0.7238  -17.1  24.484  168.1  0.0091   82.4  0.9691  -10.0
 0.150  0.7144  -25.7  24.027  162.3  0.0135   78.0  0.9530  -14.9
 0.200  0.7041  -33.8  23.433  156.8  0.0175   74.6  0.9313  -19.7
 0.250  0.6885  -41.7  22.653  151.3  0.0214   70.9  0.9057  -24.1
 0.300  0.6749  -49.3  21.931  146.3  0.0249   67.6  0.8766  -28.4
 0.350  0.6592  -56.7  21.098  141.6  0.0281   64.7  0.8456  -32.4
 0.400  0.6446  -63.6  20.243  137.1  0.0310   61.9  0.8138  -36.1
 0.450  0.6290  -70.3  19.377  132.9  0.0337   59.4  0.7817  -39.6
 0.500  0.6137  -76.6  18.518  129.0  0.0361   57.2  0.7498  -42.9
 0.600  0.5880  -88.4  16.900  121.8  0.0402   53.3  0.6894  -48.7
 0.700  0.5651  -98.9  15.413  115.6  0.0436   50.3  0.6340  -53.8
 0.800  0.5463 -108.2  14.067  110.1  0.0465   47.9  0.5846  -58.3
 0.900  0.5327 -116.7  12.905  105.2  0.0490   46.0  0.5406  -62.3
 1.000  0.5218 -124.5  11.880  100.8  0.0514   44.4  0.5013  -66.2
 1.100  0.5133 -131.4  10.969   96.9  0.0535   43.2  0.4669  -69.5
 1.200  0.5077 -137.9  10.165   93.2  0.0556   42.1  0.4351  -72.9
 1.300  0.5027 -143.7   9.461   89.9  0.0576   41.3  0.4077  -75.9
 1.400  0.4989 -149.3   8.831   86.8  0.0594   40.5  0.3827  -79.0
 1.500  0.4962 -154.2   8.284   83.9  0.0613   39.9  0.3600  -81.8
 1.600  0.4962 -158.8   7.781   81.1  0.0632   39.3  0.3399  -84.6
 1.700  0.4940 -163.5   7.341   78.5  0.0651   38.7  0.3210  -87.4
 1.800  0.4932 -167.4   6.929   76.1  0.0669   38.2  0.3045  -90.0
 1.900  0.4943 -171.6   6.563   73.7  0.0688   37.6  0.2883  -93.0
 2.000  0.4925 -175.1   6.235   71.4  0.0706   37.2  0.2740  -95.4
 2.200  0.4944  177.5   5.661   67.0  0.0743   36.1  0.2475 -101.4
 2.400  0.4977  170.9   5.174   62.9  0.0780   35.0  0.2247 -107.7
 2.600  0.5061  164.7   4.758   58.9  0.0816   34.0  0.2053 -114.6
 2.800  0.5127  159.3   4.396   55.2  0.0852   32.9  0.1889 -121.8
 3.000  0.5217  154.2   4.086   51.6  0.0889   31.8  0.1758 -129.3
 3.500  0.5500  142.0   3.457   42.9  0.0978   28.6  0.1574 -151.4
 4.000  0.5779  131.7   2.980   34.7  0.1067   25.2  0.1585 -172.4
 4.500  0.5998  123.6   2.596   26.9  0.1149   21.5  0.1724  170.8
 5.000  0.6125  117.1   2.291   20.1  0.1226   18.1  0.1863  158.2
 5.500  0.6267  110.7   2.055   13.4  0.1299   14.6  0.2033  147.5
 6.000  0.6464  104.5   1.868    6.8  0.1376   11.1  0.2236  137.9
 6.500  0.6676   98.9   1.713    0.1  0.1457    7.1  0.2434  129.4
 7.000  0.6840   93.3   1.585   -6.9  0.1544    2.9  0.2589  121.2
 7.500  0.6953   87.4   1.470  -13.9  0.1626   -2.0  0.2808  113.8
 8.000  0.7085   80.7   1.347  -21.1  0.1677   -7.7  0.3084  106.2
 8.500  0.7253   73.7   1.221  -27.7  0.1683  -12.7  0.3425   97.8
 9.000  0.7589   67.5   1.118  -33.4  0.1685  -16.3  0.3912   90.8
 9.500  0.8106   62.9   1.039  -38.7  0.1700  -19.5  0.4500   86.2
10.000  0.8508   59.5   0.941  -44.1  0.1721  -22.9  0.5021   82.8
!
!  f       Fmin   Gammaopt  rn/50
! GHz       dB    MAG  ANG    -
!
! noise parameter not availible yet for this operation point!
!
! (c) 2009  Infineon Technologies AG, Munich