! Infineon Technologies  Discrete & RF Semiconductors
! BFP420
!
! VCE =  2.5 V,  IC =  12 mA
! Common Emitter S-Parameters:                            Nov 2009
# GHz  S  MA  R  50
!  f         S11            S21            S12            S22
! GHz     MAG   ANG      MAG   ANG      MAG   ANG      MAG   ANG
 0.010  0.6617   -1.7  30.974  179.0  0.0009   72.6  0.9658    1.0
 0.020  0.6698   -4.0  30.168  177.2  0.0018   85.4  0.9730   -2.0
 0.050  0.6613   -9.7  30.051  173.0  0.0042   87.1  0.9724   -5.3
 0.100  0.6590  -19.8  29.724  166.5  0.0083   81.6  0.9610  -11.0
 0.150  0.6492  -29.4  28.977  160.1  0.0122   77.1  0.9403  -16.4
 0.200  0.6391  -38.6  28.058  154.1  0.0158   73.1  0.9130  -21.5
 0.250  0.6213  -47.5  26.899  148.2  0.0191   69.7  0.8818  -26.2
 0.300  0.6065  -56.0  25.810  142.9  0.0221   66.4  0.8470  -30.6
 0.350  0.5915  -64.1  24.620  138.0  0.0248   63.7  0.8112  -34.7
 0.400  0.5771  -71.6  23.416  133.3  0.0272   61.0  0.7752  -38.4
 0.450  0.5623  -78.7  22.241  129.1  0.0294   58.8  0.7401  -41.8
 0.500  0.5498  -85.3  21.101  125.1  0.0314   56.8  0.7057  -45.0
 0.600  0.5272  -97.4  19.013  117.9  0.0347   53.7  0.6427  -50.6
 0.700  0.5103 -108.2  17.161  111.9  0.0376   51.3  0.5871  -55.3
 0.800  0.4961 -117.3  15.544  106.6  0.0402   49.6  0.5389  -59.4
 0.900  0.4865 -125.7  14.164  101.9  0.0424   48.3  0.4967  -63.1
 1.000  0.4797 -133.3  12.970   97.8  0.0446   47.3  0.4595  -66.6
 1.100  0.4749 -139.9  11.927   94.1  0.0467   46.5  0.4276  -69.6
 1.200  0.4716 -146.0  11.015   90.6  0.0488   45.9  0.3982  -72.8
 1.300  0.4693 -151.5  10.221   87.5  0.0508   45.4  0.3730  -75.6
 1.400  0.4681 -156.6   9.521   84.5  0.0528   44.9  0.3502  -78.4
 1.500  0.4673 -161.2   8.911   81.8  0.0549   44.5  0.3294  -81.1
 1.600  0.4680 -165.5   8.357   79.2  0.0569   44.1  0.3112  -83.7
 1.700  0.4684 -169.7   7.872   76.7  0.0589   43.7  0.2940  -86.4
 1.800  0.4683 -173.5   7.423   74.3  0.0610   43.3  0.2788  -88.8
 1.900  0.4707 -177.3   7.023   72.1  0.0630   42.8  0.2640  -91.9
 2.000  0.4697  179.4   6.666   70.0  0.0652   42.4  0.2510  -94.2
 2.200  0.4733  172.8   6.043   65.8  0.0693   41.5  0.2266 -100.0
 2.400  0.4793  166.6   5.514   61.8  0.0734   40.3  0.2055 -106.4
 2.600  0.4877  160.8   5.066   58.0  0.0774   39.2  0.1875 -113.5
 2.800  0.4952  155.7   4.678   54.5  0.0815   38.1  0.1724 -120.9
 3.000  0.5058  150.9   4.346   51.1  0.0856   36.8  0.1602 -128.7
 3.500  0.5357  139.6   3.673   42.6  0.0955   33.2  0.1442 -152.0
 4.000  0.5650  129.8   3.165   34.6  0.1052   29.5  0.1476 -173.9
 4.500  0.5867  122.0   2.756   27.1  0.1141   25.4  0.1635  169.0
 5.000  0.5998  115.9   2.432   20.4  0.1225   21.5  0.1788  156.3
 5.500  0.6151  109.7   2.181   13.9  0.1304   17.7  0.1969  145.7
 6.000  0.6352  103.7   1.983    7.4  0.1384   13.9  0.2180  136.1
 6.500  0.6576   98.2   1.819    0.7  0.1469    9.6  0.2384  127.7
 7.000  0.6739   92.7   1.682   -6.1  0.1559    5.2  0.2542  119.5
 7.500  0.6857   87.0   1.559  -13.1  0.1643    0.0  0.2760  112.2
 8.000  0.6995   80.5   1.429  -20.2  0.1695   -5.9  0.3040  104.9
 8.500  0.7174   73.5   1.297  -26.8  0.1702  -11.0  0.3389   96.6
 9.000  0.7518   67.3   1.187  -32.4  0.1703  -14.8  0.3882   89.7
 9.500  0.8049   62.8   1.103  -37.7  0.1720  -18.1  0.4472   85.2
10.000  0.8453   59.5   1.000  -43.1  0.1740  -21.6  0.4990   81.8
!
!  f       Fmin   Gammaopt  rn/50
! GHz       dB    MAG  ANG    -
 0.900      0.95  0.03 -151   0.13
 1.800      1.27  0.13 -152   0.12
 2.400      1.38  0.13 -160   0.14
 3.000      1.43  0.22 -145   0.13
 4.000      1.58  0.35 -123   0.17
 5.000      2.03  0.43 -103   0.28
 6.000      2.40  0.47  -91   0.43
!
! (c) 2009  Infineon Technologies AG, Munich