! Infineon Technologies  Discrete & RF Semiconductors
! BFP420
!
! VCE =  2.5 V,  IC =  3.0 mA
! Common Emitter S-Parameters:                            Nov 2009
# GHz  S  MA  R  50
!  f         S11            S21            S12            S22
! GHz     MAG   ANG      MAG   ANG      MAG   ANG      MAG   ANG
 0.010  0.8933   -1.0  10.234  179.3  0.0003   36.9  0.9922    0.1
 0.020  0.8974   -2.0   9.951  178.8  0.0020   81.6  0.9932   -1.0
 0.050  0.8958   -4.4   9.985  176.5  0.0049   86.2  0.9928   -2.6
 0.100  0.8920   -9.2  10.023  173.1  0.0096   84.8  0.9907   -5.2
 0.150  0.8908  -13.7   9.991  169.6  0.0144   82.6  0.9863   -7.9
 0.200  0.8881  -18.1   9.931  166.2  0.0191   79.8  0.9799  -10.5
 0.250  0.8812  -22.7   9.824  162.6  0.0237   77.6  0.9722  -13.0
 0.300  0.8747  -27.2   9.750  159.4  0.0283   75.2  0.9626  -15.6
 0.350  0.8662  -31.6   9.639  156.1  0.0326   72.7  0.9517  -18.1
 0.400  0.8589  -36.0   9.508  152.9  0.0368   70.4  0.9390  -20.5
 0.450  0.8496  -40.3   9.364  149.7  0.0410   68.1  0.9259  -22.9
 0.500  0.8388  -44.6   9.209  146.5  0.0449   65.8  0.9109  -25.2
 0.600  0.8187  -53.0   8.882  140.4  0.0521   61.5  0.8801  -29.7
 0.700  0.7961  -61.2   8.527  134.6  0.0587   57.4  0.8463  -33.9
 0.800  0.7747  -68.9   8.141  129.2  0.0646   53.6  0.8122  -37.8
 0.900  0.7536  -76.4   7.777  124.1  0.0697   50.1  0.7776  -41.5
 1.000  0.7343  -83.7   7.413  119.3  0.0744   46.9  0.7432  -45.0
 1.100  0.7157  -90.5   7.057  114.8  0.0785   44.0  0.7108  -48.1
 1.200  0.6983  -97.3   6.723  110.4  0.0821   41.1  0.6780  -51.3
 1.300  0.6831 -103.6   6.403  106.5  0.0853   38.6  0.6479  -54.1
 1.400  0.6688 -109.8   6.101  102.5  0.0880   36.1  0.6187  -56.8
 1.500  0.6561 -115.5   5.824   99.1  0.0906   34.0  0.5911  -59.3
 1.600  0.6460 -121.3   5.561   95.5  0.0926   31.9  0.5651  -61.7
 1.700  0.6341 -126.7   5.320   92.2  0.0947   30.0  0.5406  -64.0
 1.800  0.6255 -131.8   5.076   89.1  0.0963   28.2  0.5177  -66.1
 1.900  0.6178 -137.0   4.862   86.1  0.0979   26.5  0.4950  -68.4
 2.000  0.6095 -141.5   4.659   83.2  0.0993   25.0  0.4750  -70.2
 2.200  0.5966 -151.0   4.300   77.6  0.1017   22.1  0.4357  -74.1
 2.400  0.5885 -159.8   3.977   72.4  0.1036   19.4  0.3998  -78.1
 2.600  0.5857 -168.4   3.694   67.5  0.1050   17.0  0.3672  -81.9
 2.800  0.5829 -176.1   3.440   62.9  0.1061   15.0  0.3380  -85.6
 3.000  0.5852  176.8   3.221   58.5  0.1071   13.2  0.3117  -89.3
 3.500  0.5991  160.5   2.761   48.0  0.1089    9.2  0.2554 -100.3
 4.000  0.6195  146.6   2.401   38.2  0.1108    6.2  0.2149 -113.0
 4.500  0.6365  135.7   2.101   29.1  0.1125    3.5  0.1899 -127.4
 5.000  0.6465  127.2   1.855   21.2  0.1141    1.5  0.1750 -141.1
 5.500  0.6580  119.2   1.664   13.7  0.1160   -0.2  0.1679 -155.5
 6.000  0.6755  111.7   1.515    6.4  0.1188   -1.5  0.1676 -170.5
 6.500  0.6964  105.0   1.393   -1.0  0.1235   -3.1  0.1728  175.6
 7.000  0.7117   98.7   1.290   -8.4  0.1295   -5.1  0.1793  163.2
 7.500  0.7230   92.0   1.197  -15.9  0.1362   -8.1  0.1942  150.8
 8.000  0.7338   84.6   1.098  -23.5  0.1410  -12.0  0.2158  137.9
 8.500  0.7463   76.9   0.998  -30.5  0.1423  -15.8  0.2435  124.2
 9.000  0.7770   70.3   0.915  -36.7  0.1432  -18.2  0.2899  112.3
 9.500  0.8280   65.3   0.848  -42.4  0.1453  -20.3  0.3525  104.8
10.000  0.8679   61.6   0.767  -48.4  0.1489  -22.6  0.4153  100.3
!
!  f       Fmin   Gammaopt  rn/50
! GHz       dB    MAG  ANG    -
 0.900      0.57  0.35   33   0.18
 1.800      1.02  0.20   79   0.14
 2.400      1.10  0.23  104   0.14
 3.000      1.25  0.24  144   0.11
 4.000      1.46  0.33 -159   0.10
 5.000      1.90  0.39 -128   0.22
 6.000      2.46  0.48 -107   0.35
!
! (c) 2009  Infineon Technologies AG, Munich