! Infineon Technologies  Discrete & RF Semiconductors
! BFP420
!
! VCE =  2.5 V,  IC =  25 mA
! Common Emitter S-Parameters:                            Nov 2009
# GHz  S  MA  R  50
!  f         S11            S21            S12            S22
! GHz     MAG   ANG      MAG   ANG      MAG   ANG      MAG   ANG
 0.010  0.4502   -3.3  46.534  179.2  0.0012  105.6  0.9307    2.1
 0.020  0.4616   -6.4  45.425  176.2  0.0017   90.4  0.9482   -2.2
 0.050  0.4585  -15.5  44.993  170.7  0.0035   85.8  0.9487   -7.1
 0.100  0.4588  -31.3  43.845  161.8  0.0071   79.2  0.9283  -14.9
 0.150  0.4514  -46.1  41.760  153.4  0.0103   74.6  0.8904  -22.0
 0.200  0.4476  -59.4  39.338  145.9  0.0130   70.6  0.8437  -28.4
 0.250  0.4383  -71.6  36.630  139.0  0.0155   66.9  0.7940  -34.0
 0.300  0.4346  -82.5  34.154  133.0  0.0176   64.4  0.7437  -38.9
 0.350  0.4295  -92.3  31.723  127.8  0.0194   62.0  0.6958  -43.2
 0.400  0.4266 -100.7  29.461  123.0  0.0211   60.4  0.6515  -46.9
 0.450  0.4233 -108.4  27.381  118.8  0.0226   59.2  0.6109  -50.2
 0.500  0.4213 -115.2  25.491  115.0  0.0240   58.2  0.5739  -53.1
 0.600  0.4190 -126.9  22.271  108.4  0.0266   56.8  0.5107  -58.2
 0.700  0.4194 -136.4  19.647  103.0  0.0290   56.0  0.4594  -62.4
 0.800  0.4195 -144.3  17.492   98.4  0.0313   55.7  0.4171  -66.0
 0.900  0.4212 -151.1  15.737   94.3  0.0336   55.6  0.3820  -69.3
 1.000  0.4243 -157.1  14.254   90.8  0.0360   55.4  0.3516  -72.6
 1.100  0.4269 -162.1  13.005   87.6  0.0384   55.3  0.3262  -75.5
 1.200  0.4303 -166.8  11.933   84.5  0.0407   55.2  0.3034  -78.7
 1.300  0.4333 -171.0  11.021   81.8  0.0432   54.9  0.2839  -81.4
 1.400  0.4371 -174.9  10.222   79.3  0.0456   54.7  0.2665  -84.5
 1.500  0.4391 -178.4   9.534   76.9  0.0480   54.4  0.2506  -87.3
 1.600  0.4431  178.5   8.916   74.6  0.0505   54.0  0.2370  -90.2
 1.700  0.4459  175.0   8.379   72.5  0.0530   53.6  0.2241  -93.3
 1.800  0.4479  172.3   7.884   70.3  0.0555   53.1  0.2128  -96.1
 1.900  0.4518  169.3   7.444   68.4  0.0580   52.5  0.2020  -99.7
 2.000  0.4522  166.8   7.056   66.5  0.0605   51.9  0.1922 -102.4
 2.200  0.4588  161.4   6.379   62.6  0.0654   50.6  0.1748 -109.5
 2.400  0.4665  156.4   5.812   59.1  0.0703   49.1  0.1604 -117.5
 2.600  0.4772  151.7   5.331   55.6  0.0751   47.6  0.1491 -126.4
 2.800  0.4865  147.4   4.919   52.3  0.0799   46.1  0.1408 -135.5
 3.000  0.4969  143.5   4.563   49.1  0.0847   44.3  0.1353 -144.9
 3.500  0.5294  133.8   3.853   41.2  0.0960   39.9  0.1369 -169.6
 4.000  0.5593  125.3   3.315   33.6  0.1070   35.3  0.1539  170.6
 4.500  0.5820  118.4   2.886   26.4  0.1168   30.4  0.1776  156.6
 5.000  0.5954  112.9   2.549   20.0  0.1261   25.9  0.1972  146.2
 5.500  0.6116  107.2   2.286   13.7  0.1348   21.5  0.2184  137.4
 6.000  0.6318  101.5   2.078    7.5  0.1435   17.1  0.2419  129.2
 6.500  0.6537   96.4   1.905    0.9  0.1524   12.3  0.2636  121.7
 7.000  0.6703   91.2   1.761   -5.7  0.1616    7.5  0.2801  114.1
 7.500  0.6825   85.6   1.633  -12.5  0.1702    2.0  0.3019  107.5
 8.000  0.6963   79.3   1.496  -19.6  0.1753   -4.1  0.3298  100.7
 8.500  0.7148   72.5   1.357  -26.0  0.1757   -9.5  0.3648   93.2
 9.000  0.7500   66.5   1.240  -31.5  0.1758  -13.5  0.4141   86.8
 9.500  0.8032   62.1   1.154  -36.7  0.1774  -17.0  0.4727   82.5
10.000  0.8443   58.9   1.046  -41.9  0.1791  -20.8  0.5230   79.1
!
!  f       Fmin   Gammaopt  rn/50
! GHz       dB    MAG  ANG    -
 0.900      1.38  0.22 -154   0.13
 1.800      1.65  0.29 -143   0.13
 2.400      1.81  0.26 -138   0.17
 3.000      1.83  0.34 -129   0.18
 4.000      1.97  0.45 -112   0.27
 5.000      2.40  0.49  -95   0.44
 6.000      2.85  0.54  -84   0.65
!
! (c) 2009  Infineon Technologies AG, Munich