! Infineon Technologies  Discrete & RF Semiconductors
! BFP420
!
! VCE =  2.0 V,  IC =  1.2 mA
! Common Emitter S-Parameters:                            Nov 2009
# GHz  S  MA  R  50
!  f         S11            S21            S12            S22
! GHz     MAG   ANG      MAG   ANG      MAG   ANG      MAG   ANG
 0.010  0.9547   -1.1   4.355  179.4  0.0004  140.7  0.9972   -0.1
 0.020  0.9563   -1.2   4.210  179.3  0.0020   84.0  0.9967   -0.7
 0.050  0.9569   -3.1   4.239  177.4  0.0053   87.5  0.9968   -1.8
 0.100  0.9546   -6.4   4.267  174.9  0.0104   86.2  0.9957   -3.7
 0.150  0.9529   -9.5   4.268  172.3  0.0157   84.5  0.9935   -5.5
 0.200  0.9528  -12.7   4.266  169.8  0.0209   82.6  0.9902   -7.4
 0.250  0.9500  -15.9   4.240  167.0  0.0261   80.6  0.9865   -9.2
 0.300  0.9467  -19.1   4.236  164.5  0.0312   78.7  0.9815  -11.1
 0.350  0.9435  -22.3   4.221  162.0  0.0363   76.8  0.9761  -12.8
 0.400  0.9411  -25.4   4.196  159.5  0.0413   74.8  0.9693  -14.6
 0.450  0.9350  -28.6   4.169  156.9  0.0463   72.9  0.9626  -16.4
 0.500  0.9311  -31.8   4.139  154.3  0.0512   71.0  0.9542  -18.1
 0.600  0.9208  -38.1   4.069  149.3  0.0606   67.1  0.9370  -21.6
 0.700  0.9085  -44.3   3.994  144.4  0.0695   63.3  0.9173  -24.9
 0.800  0.8963  -50.5   3.898  139.7  0.0780   59.8  0.8961  -28.0
 0.900  0.8824  -56.5   3.804  135.1  0.0859   56.2  0.8737  -31.1
 1.000  0.8688  -62.6   3.708  130.7  0.0934   52.7  0.8506  -34.1
 1.100  0.8555  -68.4   3.603  126.4  0.1002   49.5  0.8272  -36.9
 1.200  0.8418  -74.3   3.502  122.2  0.1066   46.2  0.8032  -39.7
 1.300  0.8289  -80.0   3.402  118.2  0.1125   43.2  0.7800  -42.3
 1.400  0.8158  -85.7   3.303  114.2  0.1178   40.1  0.7565  -44.8
 1.500  0.8036  -91.1   3.206  110.6  0.1228   37.2  0.7334  -47.2
 1.600  0.7926  -96.5   3.114  106.7  0.1269   34.4  0.7108  -49.5
 1.700  0.7794 -101.7   3.023  103.2  0.1311   31.7  0.6891  -51.6
 1.800  0.7685 -106.7   2.924   99.8  0.1344   29.1  0.6681  -53.7
 1.900  0.7587 -112.0   2.843   96.4  0.1377   26.5  0.6466  -55.8
 2.000  0.7479 -116.7   2.756   93.2  0.1404   24.1  0.6275  -57.6
 2.200  0.7286 -126.5   2.601   86.8  0.1451   19.4  0.5887  -61.4
 2.400  0.7122 -135.9   2.453   80.8  0.1485   15.0  0.5522  -65.0
 2.600  0.7014 -145.3   2.317   75.0  0.1505   10.7  0.5181  -68.5
 2.800  0.6907 -153.9   2.186   69.6  0.1515    6.9  0.4871  -71.8
 3.000  0.6854 -162.2   2.071   64.4  0.1517    3.2  0.4587  -75.0
 3.500  0.6822  178.2   1.820   51.9  0.1494   -4.8  0.3965  -83.5
 4.000  0.6915  161.6   1.611   40.4  0.1450  -11.1  0.3492  -92.6
 4.500  0.7023  148.1   1.422   29.7  0.1386  -16.6  0.3154 -102.8
 5.000  0.7070  137.6   1.262   20.5  0.1310  -20.5  0.2915 -112.8
 5.500  0.7138  128.0   1.135   12.0  0.1230  -23.0  0.2731 -123.3
 6.000  0.7287  119.1   1.035    4.0  0.1162  -23.9  0.2616 -134.7
 6.500  0.7466  111.3   0.955   -4.0  0.1125  -23.8  0.2563 -146.6
 7.000  0.7618  104.0   0.886  -11.9  0.1114  -23.2  0.2536 -158.8
 7.500  0.7725   96.6   0.823  -19.7  0.1126  -23.0  0.2564 -172.3
 8.000  0.7791   88.4   0.755  -27.7  0.1140  -23.9  0.2641  173.1
 8.500  0.7854   80.0   0.686  -34.8  0.1139  -24.7  0.2744  157.1
 9.000  0.8111   72.8   0.629  -41.2  0.1146  -24.5  0.3061  140.7
 9.500  0.8598   67.3   0.580  -47.0  0.1173  -24.0  0.3660  128.4
10.000  0.8979   63.3   0.522  -53.0  0.1227  -24.3  0.4376  120.1
!
!  f       Fmin   Gammaopt  rn/50
! GHz       dB    MAG  ANG    -
 0.900      0.53  0.62   33   0.31
 1.800      1.10  0.40   77   0.24
 2.400      1.23  0.41  100   0.20
 3.000      1.51  0.41  132   0.14
 4.000      1.80  0.44 -175   0.09
 5.000      2.23  0.45 -132   0.38
 6.000      3.18  0.57 -116   0.44
!
! (c) 2009  Infineon Technologies AG, Munich