! Infineon Technologies  Discrete & RF Semiconductors
! BFP420
!
! VCE =  2.0 V,  IC =  5.0 mA
! Common Emitter S-Parameters:                            Nov 2009
# GHz  S  MA  R  50
!  f         S11            S21            S12            S22
! GHz     MAG   ANG      MAG   ANG      MAG   ANG      MAG   ANG
 0.010  0.8302   -2.0  15.895  179.3  0.0006  116.7  0.9850    0.1
 0.020  0.8337   -2.5  15.520  178.4  0.0020   86.2  0.9884   -1.4
 0.050  0.8308   -6.1  15.553  175.4  0.0049   87.6  0.9876   -3.5
 0.100  0.8294  -12.3  15.566  171.1  0.0097   83.7  0.9831   -7.2
 0.150  0.8241  -18.2  15.433  166.7  0.0145   80.6  0.9749  -10.8
 0.200  0.8181  -24.2  15.243  162.4  0.0192   77.7  0.9632  -14.4
 0.250  0.8074  -30.1  14.955  158.0  0.0236   74.6  0.9492  -17.8
 0.300  0.7974  -35.9  14.721  153.9  0.0279   71.7  0.9322  -21.2
 0.350  0.7854  -41.6  14.397  150.0  0.0320   68.9  0.9133  -24.5
 0.400  0.7734  -47.1  14.054  146.1  0.0358   66.2  0.8925  -27.5
 0.450  0.7591  -52.5  13.691  142.3  0.0394   63.6  0.8710  -30.5
 0.500  0.7456  -57.8  13.307  138.7  0.0427   61.2  0.8480  -33.4
 0.600  0.7187  -67.9  12.533  131.8  0.0486   56.6  0.8015  -38.9
 0.700  0.6918  -77.4  11.762  125.6  0.0537   52.7  0.7549  -43.8
 0.800  0.6681  -86.2  10.988  119.9  0.0581   49.3  0.7101  -48.2
 0.900  0.6461  -94.5  10.289  114.7  0.0618   46.2  0.6676  -52.2
 1.000  0.6278 -102.4   9.636  110.0  0.0650   43.6  0.6276  -56.0
 1.100  0.6118 -109.6   9.023  105.6  0.0678   41.2  0.5911  -59.4
 1.200  0.5983 -116.5   8.467  101.5  0.0703   39.1  0.5562  -62.8
 1.300  0.5872 -122.9   7.962   97.7  0.0726   37.3  0.5251  -65.8
 1.400  0.5771 -129.0   7.500   94.2  0.0745   35.6  0.4958  -68.7
 1.500  0.5688 -134.5   7.086   90.9  0.0765   34.1  0.4688  -71.4
 1.600  0.5630 -139.9   6.699   87.7  0.0780   32.8  0.4444  -73.9
 1.700  0.5558 -145.2   6.356   84.8  0.0797   31.6  0.4214  -76.5
 1.800  0.5513 -149.8   6.028   82.0  0.0812   30.5  0.4008  -78.7
 1.900  0.5476 -154.7   5.735   79.2  0.0827   29.4  0.3803  -81.4
 2.000  0.5435 -158.8   5.466   76.7  0.0841   28.6  0.3624  -83.4
 2.200  0.5380 -167.4   4.994   71.7  0.0868   26.8  0.3283  -88.2
 2.400  0.5371 -175.3   4.585   67.1  0.0892   25.1  0.2976  -93.1
 2.600  0.5405  177.2   4.234   62.6  0.0915   23.7  0.2706  -98.3
 2.800  0.5432  170.7   3.924   58.5  0.0937   22.5  0.2467 -103.5
 3.000  0.5499  164.5   3.657   54.6  0.0960   21.3  0.2259 -108.9
 3.500  0.5726  150.3   3.109   45.0  0.1015   18.4  0.1856 -125.7
 4.000  0.5966  138.4   2.688   36.1  0.1073   15.7  0.1644 -144.7
 4.500  0.6171  128.9   2.346   27.7  0.1127   12.9  0.1606 -163.4
 5.000  0.6285  121.6   2.070   20.3  0.1181   10.3  0.1637 -178.6
 5.500  0.6421  114.4   1.857   13.3  0.1232    7.8  0.1727  167.6
 6.000  0.6602  107.6   1.689    6.4  0.1290    5.3  0.1866  155.1
 6.500  0.6819  101.5   1.551   -0.7  0.1359    2.3  0.2025  144.6
 7.000  0.6976   95.7   1.435   -7.8  0.1436   -0.9  0.2162  134.8
 7.500  0.7089   89.4   1.331  -15.0  0.1513   -5.1  0.2372  125.8
 8.000  0.7205   82.4   1.221  -22.5  0.1563  -10.1  0.2643  116.6
 8.500  0.7354   75.1   1.108  -29.3  0.1572  -14.6  0.2973  106.6
 9.000  0.7675   68.7   1.014  -35.2  0.1577  -17.7  0.3461   98.1
 9.500  0.8192   63.9   0.942  -40.7  0.1594  -20.4  0.4066   92.8
10.000  0.8587   60.4   0.853  -46.4  0.1621  -23.4  0.4629   89.2
!
!  f       Fmin   Gammaopt  rn/50
! GHz       dB    MAG  ANG    -
 0.900      0.66  0.21   31   0.15
 1.800      1.05  0.09   93   0.13
 2.400      1.14  0.14  119   0.13
 3.000      1.24  0.17  165   0.11
 4.000      1.41  0.31 -145   0.12
 5.000      1.85  0.38 -119   0.21
 6.000      2.30  0.45 -101   0.36
!
! (c) 2009  Infineon Technologies AG, Munich