! Infineon Technologies  Discrete & RF Semiconductors
! BFP420
!
! VCE =  2.5 V,  IC =  2.5 mA
! Common Emitter S-Parameters:                            Nov 2009
# GHz  S  MA  R  50
!  f         S11            S21            S12            S22
! GHz     MAG   ANG      MAG   ANG      MAG   ANG      MAG   ANG
 0.010  0.9193   -1.8   8.647  179.2  0.0012   55.8  0.9932    0.1
 0.020  0.9129   -1.6   8.430  178.9  0.0019   87.5  0.9940   -0.9
 0.050  0.9106   -4.1   8.471  176.7  0.0047   85.6  0.9940   -2.3
 0.100  0.9102   -8.3   8.504  173.6  0.0097   84.8  0.9924   -4.8
 0.150  0.9073  -12.5   8.487  170.4  0.0146   83.1  0.9886   -7.2
 0.200  0.9056  -16.6   8.449  167.2  0.0193   80.7  0.9832   -9.6
 0.250  0.8995  -20.8   8.369  163.8  0.0240   78.4  0.9769  -11.9
 0.300  0.8937  -25.0   8.326  160.8  0.0286   76.2  0.9687  -14.2
 0.350  0.8876  -29.1   8.249  157.7  0.0332   73.8  0.9596  -16.6
 0.400  0.8812  -33.1   8.155  154.6  0.0375   71.5  0.9488  -18.8
 0.450  0.8727  -37.2   8.054  151.6  0.0418   69.3  0.9378  -21.0
 0.500  0.8639  -41.2   7.944  148.6  0.0459   67.2  0.9249  -23.2
 0.600  0.8462  -49.1   7.699  142.7  0.0537   62.9  0.8979  -27.4
 0.700  0.8261  -56.9   7.440  137.2  0.0608   58.9  0.8681  -31.4
 0.800  0.8067  -64.2   7.143  131.9  0.0672   55.1  0.8373  -35.2
 0.900  0.7866  -71.4   6.863  126.9  0.0729   51.5  0.8057  -38.7
 1.000  0.7678  -78.4   6.580  122.2  0.0782   48.2  0.7740  -42.1
 1.100  0.7497  -85.1   6.295  117.7  0.0827   45.1  0.7431  -45.2
 1.200  0.7328  -91.7   6.025  113.3  0.0869   42.1  0.7121  -48.3
 1.300  0.7173  -97.9   5.768  109.3  0.0905   39.4  0.6835  -51.1
 1.400  0.7022 -104.1   5.516  105.3  0.0937   36.7  0.6548  -53.8
 1.500  0.6891 -109.8   5.287  101.8  0.0966   34.4  0.6275  -56.3
 1.600  0.6773 -115.4   5.066   98.1  0.0990   32.1  0.6019  -58.6
 1.700  0.6655 -120.9   4.859   94.8  0.1013   30.0  0.5773  -60.9
 1.800  0.6556 -126.0   4.651   91.5  0.1033   27.9  0.5547  -63.0
 1.900  0.6465 -131.3   4.468   88.4  0.1050   26.0  0.5316  -65.2
 2.000  0.6380 -135.9   4.291   85.5  0.1065   24.3  0.5113  -67.0
 2.200  0.6228 -145.5   3.977   79.7  0.1091   20.9  0.4712  -71.0
 2.400  0.6118 -154.5   3.691   74.3  0.1110   17.8  0.4345  -74.7
 2.600  0.6076 -163.4   3.439   69.2  0.1123   15.0  0.4008  -78.4
 2.800  0.6028 -171.3   3.209   64.4  0.1131   12.7  0.3704  -81.9
 3.000  0.6027 -178.9   3.011   59.9  0.1137   10.5  0.3432  -85.4
 3.500  0.6136  164.0   2.591   48.9  0.1143    5.8  0.2842  -95.4
 4.000  0.6318  149.6   2.260   38.9  0.1148    2.4  0.2407 -106.8
 4.500  0.6482  138.2   1.979   29.4  0.1148   -0.5  0.2120 -119.7
 5.000  0.6567  129.3   1.749   21.3  0.1148   -2.6  0.1937 -132.1
 5.500  0.6672  120.9   1.569   13.6  0.1150   -4.1  0.1822 -145.4
 6.000  0.6846  113.2   1.429    6.2  0.1164   -5.0  0.1778 -159.7
 6.500  0.7047  106.3   1.314   -1.3  0.1199   -6.2  0.1794 -173.7
 7.000  0.7201   99.7   1.217   -8.9  0.1250   -7.6  0.1829  173.4
 7.500  0.7311   93.0   1.130  -16.4  0.1310  -10.0  0.1947  160.2
 8.000  0.7416   85.4   1.037  -24.1  0.1356  -13.5  0.2132  146.4
 8.500  0.7529   77.6   0.942  -31.2  0.1368  -16.9  0.2375  131.5
 9.000  0.7825   70.8   0.864  -37.5  0.1378  -19.0  0.2816  118.2
 9.500  0.8336   65.6   0.801  -43.3  0.1401  -20.7  0.3444  109.7
10.000  0.8722   61.9   0.724  -49.3  0.1440  -22.7  0.4094  104.5
!
!  f       Fmin   Gammaopt  rn/50
! GHz       dB    MAG  ANG    -
 0.900      0.55  0.41   33   0.20
 1.800      1.02  0.24   78   0.16
 2.400      1.11  0.26  103   0.15
 3.000      1.28  0.27  140   0.11
 4.000      1.50  0.34 -163   0.10
 5.000      1.85  0.40 -130   0.26
 6.000      2.56  0.50 -109   0.35
!
! (c) 2009  Infineon Technologies AG, Munich