! Infineon Technologies  Discrete & RF Semiconductors
! BFP420
!
! VCE =  2.0 V,  IC =  30 mA
! Common Emitter S-Parameters:                            Nov 2009
# GHz  S  MA  R  50
!  f         S11            S21            S12            S22
! GHz     MAG   ANG      MAG   ANG      MAG   ANG      MAG   ANG
 0.010  0.3934   -4.3  49.824  179.4  0.0013  110.1  0.9156    2.4
 0.020  0.4004   -7.8  48.804  176.1  0.0018   94.4  0.9351   -2.3
 0.050  0.3990  -18.8  48.385  170.0  0.0037   85.7  0.9373   -7.9
 0.100  0.4015  -37.5  46.935  160.3  0.0072   78.7  0.9120  -16.6
 0.150  0.4010  -54.3  44.320  151.3  0.0102   73.5  0.8680  -24.6
 0.200  0.4025  -69.2  41.337  143.3  0.0129   69.7  0.8146  -31.5
 0.250  0.4017  -82.3  38.123  136.2  0.0152   66.3  0.7594  -37.5
 0.300  0.4034  -93.6  35.210  130.1  0.0172   63.7  0.7048  -42.7
 0.350  0.4058 -103.2  32.430  124.8  0.0189   61.7  0.6546  -47.2
 0.400  0.4065 -111.6  29.918  120.0  0.0205   60.2  0.6091  -51.1
 0.450  0.4087 -119.0  27.646  115.9  0.0219   59.2  0.5679  -54.4
 0.500  0.4105 -125.5  25.616  112.2  0.0233   58.4  0.5312  -57.5
 0.600  0.4143 -136.3  22.207  105.8  0.0258   57.6  0.4696  -62.7
 0.700  0.4186 -145.0  19.485  100.7  0.0283   57.2  0.4202  -67.1
 0.800  0.4216 -152.1  17.279   96.2  0.0307   57.1  0.3803  -70.9
 0.900  0.4261 -158.2  15.497   92.3  0.0331   57.0  0.3474  -74.6
 1.000  0.4311 -163.6  14.009   88.9  0.0356   56.9  0.3191  -78.2
 1.100  0.4340 -168.1  12.755   85.9  0.0381   56.9  0.2957  -81.4
 1.200  0.4386 -172.3  11.691   82.9  0.0406   56.7  0.2748  -85.0
 1.300  0.4427 -176.2  10.782   80.3  0.0431   56.5  0.2570  -88.2
 1.400  0.4466 -179.5   9.994   77.9  0.0457   56.2  0.2417  -91.7
 1.500  0.4496  177.2   9.314   75.6  0.0483   55.8  0.2273  -95.0
 1.600  0.4535  174.4   8.706   73.3  0.0508   55.4  0.2156  -98.3
 1.700  0.4567  171.3   8.178   71.3  0.0534   54.9  0.2043 -101.9
 1.800  0.4584  168.8   7.693   69.2  0.0561   54.4  0.1945 -105.1
 1.900  0.4633  166.0   7.261   67.3  0.0586   53.8  0.1856 -109.3
 2.000  0.4644  163.5   6.883   65.4  0.0613   53.1  0.1772 -112.4
 2.200  0.4708  158.5   6.220   61.7  0.0664   51.7  0.1635 -120.6
 2.400  0.4783  153.8   5.664   58.2  0.0715   50.1  0.1531 -129.5
 2.600  0.4892  149.4   5.194   54.7  0.0764   48.4  0.1462 -139.1
 2.800  0.4980  145.4   4.792   51.5  0.0814   46.8  0.1422 -148.5
 3.000  0.5095  141.6   4.445   48.3  0.0863   45.0  0.1410 -157.9
 3.500  0.5403  132.3   3.750   40.5  0.0979   40.3  0.1518  179.8
 4.000  0.5708  124.0   3.226   33.0  0.1091   35.5  0.1741  162.9
 4.500  0.5925  117.3   2.808   25.8  0.1192   30.5  0.1999  151.0
 5.000  0.6053  112.0   2.479   19.4  0.1286   25.9  0.2203  141.8
 5.500  0.6202  106.4   2.224   13.2  0.1374   21.5  0.2419  133.9
 6.000  0.6410  100.8   2.022    7.0  0.1463   17.0  0.2660  126.4
 6.500  0.6626   95.7   1.853    0.4  0.1552   12.1  0.2879  119.4
 7.000  0.6794   90.5   1.713   -6.2  0.1645    7.2  0.3043  112.1
 7.500  0.6907   85.0   1.588  -13.0  0.1730    1.5  0.3259  105.7
 8.000  0.7038   78.7   1.455  -20.1  0.1780   -4.6  0.3532   99.2
 8.500  0.7216   72.1   1.318  -26.5  0.1781  -10.1  0.3874   91.9
 9.000  0.7565   66.1   1.204  -31.9  0.1781  -14.0  0.4358   85.8
 9.500  0.8092   61.7   1.121  -37.0  0.1796  -17.5  0.4937   81.6
10.000  0.8485   58.5   1.016  -42.1  0.1812  -21.3  0.5433   78.1
!
!  f       Fmin   Gammaopt  rn/50
! GHz       dB    MAG  ANG    -
 0.900      1.51  0.26 -155   0.13
 1.800      1.78  0.33 -142   0.14
 2.400      1.96  0.30 -136   0.18
 3.000      1.98  0.38 -127   0.20
 4.000      2.11  0.47 -111   0.31
 5.000      2.57  0.53  -94   0.51
 6.000      3.00  0.57  -82   0.74
!
! (c) 2009  Infineon Technologies AG, Munich