! Infineon Technologies  Discrete & RF Semiconductors
! BFP420
!
! VCE =  2.0 V,  IC =  15 mA
! Common Emitter S-Parameters:                            Nov 2009
# GHz  S  MA  R  50
!  f         S11            S21            S12            S22
! GHz     MAG   ANG      MAG   ANG      MAG   ANG      MAG   ANG
 0.010  0.6091   -3.5  35.468  179.2  0.0007  126.9  0.9558    1.0
 0.020  0.6077   -4.6  34.712  176.9  0.0019   87.1  0.9655   -2.3
 0.050  0.6061  -11.7  34.554  172.2  0.0043   84.0  0.9649   -6.3
 0.100  0.5994  -23.6  34.032  164.8  0.0084   80.7  0.9495  -12.9
 0.150  0.5890  -34.8  32.932  157.6  0.0122   76.0  0.9229  -19.2
 0.200  0.5781  -45.5  31.596  151.0  0.0157   71.7  0.8883  -25.0
 0.250  0.5632  -55.6  29.971  144.7  0.0188   68.2  0.8497  -30.3
 0.300  0.5488  -65.1  28.462  139.0  0.0216   64.8  0.8079  -35.2
 0.350  0.5359  -74.0  26.865  133.9  0.0241   62.0  0.7662  -39.6
 0.400  0.5248  -82.0  25.316  129.1  0.0263   59.6  0.7258  -43.6
 0.450  0.5132  -89.5  23.831  124.8  0.0282   57.7  0.6871  -47.2
 0.500  0.5035  -96.3  22.430  120.8  0.0300   55.9  0.6504  -50.6
 0.600  0.4884 -108.7  19.938  113.8  0.0330   53.3  0.5852  -56.4
 0.700  0.4770 -119.2  17.814  108.0  0.0356   51.5  0.5295  -61.3
 0.800  0.4691 -128.1  16.002  103.0  0.0381   50.3  0.4825  -65.6
 0.900  0.4638 -136.0  14.492   98.5  0.0403   49.4  0.4424  -69.5
 1.000  0.4617 -143.2  13.202   94.6  0.0426   48.8  0.4073  -73.2
 1.100  0.4599 -149.2  12.093   91.1  0.0448   48.4  0.3777  -76.5
 1.200  0.4604 -154.9  11.133   87.8  0.0469   48.0  0.3510  -80.0
 1.300  0.4605 -159.8  10.308   84.8  0.0492   47.6  0.3280  -83.2
 1.400  0.4620 -164.5   9.580   82.0  0.0513   47.3  0.3077  -86.4
 1.500  0.4621 -168.7   8.951   79.5  0.0536   47.0  0.2891  -89.5
 1.600  0.4645 -172.4   8.383   77.0  0.0557   46.7  0.2732  -92.5
 1.700  0.4659 -176.4   7.887   74.6  0.0580   46.3  0.2582  -95.7
 1.800  0.4668 -179.7   7.431   72.4  0.0603   45.9  0.2450  -98.6
 1.900  0.4701  176.8   7.022   70.3  0.0625   45.5  0.2327 -102.2
 2.000  0.4702  173.9   6.662   68.2  0.0649   45.0  0.2214 -105.0
 2.200  0.4750  167.6   6.030   64.2  0.0694   44.0  0.2016 -112.0
 2.400  0.4816  162.0   5.499   60.4  0.0739   42.8  0.1852 -119.7
 2.600  0.4916  156.8   5.048   56.7  0.0782   41.5  0.1724 -128.1
 2.800  0.4992  152.0   4.660   53.2  0.0827   40.3  0.1627 -136.7
 3.000  0.5096  147.6   4.326   49.9  0.0871   38.8  0.1560 -145.5
 3.500  0.5407  136.9   3.654   41.7  0.0978   34.9  0.1546 -168.6
 4.000  0.5699  127.7   3.145   33.9  0.1081   30.8  0.1689  172.4
 4.500  0.5921  120.3   2.737   26.4  0.1175   26.3  0.1906  158.4
 5.000  0.6047  114.5   2.416   19.8  0.1263   22.3  0.2086  147.9
 5.500  0.6201  108.5   2.167   13.4  0.1345   18.3  0.2285  138.9
 6.000  0.6403  102.6   1.970    7.0  0.1429   14.2  0.2512  130.6
 6.500  0.6619   97.2   1.806    0.4  0.1516    9.7  0.2722  123.1
 7.000  0.6781   91.9   1.669   -6.3  0.1606    5.0  0.2883  115.5
 7.500  0.6898   86.2   1.548  -13.2  0.1690   -0.3  0.3101  108.7
 8.000  0.7028   79.7   1.418  -20.3  0.1740   -6.2  0.3375  101.8
 8.500  0.7208   72.9   1.285  -26.8  0.1743  -11.5  0.3716   94.1
 9.000  0.7552   66.8   1.175  -32.4  0.1744  -15.3  0.4200   87.6
 9.500  0.8075   62.3   1.094  -37.5  0.1759  -18.7  0.4782   83.3
10.000  0.8475   59.0   0.990  -42.8  0.1776  -22.4  0.5285   79.8
!
!  f       Fmin   Gammaopt  rn/50
! GHz       dB    MAG  ANG    -
 0.900      1.06  0.09 -152   0.13
 1.800      1.36  0.18 -147   0.12
 2.400      1.49  0.17 -148   0.14
 3.000      1.53  0.25 -138   0.14
 4.000      1.67  0.38 -119   0.20
 5.000      2.14  0.44 -103   0.32
 6.000      2.48  0.50  -88   0.47
!
! (c) 2009  Infineon Technologies AG, Munich