! Infineon Technologies  Discrete & RF Semiconductors
! BFP420
!
! VCE =  2.0 V,  IC =  0.5 mA
! Common Emitter S-Parameters:                            Nov 2009
# GHz  S  MA  R  50
!  f         S11            S21            S12            S22
! GHz     MAG   ANG      MAG   ANG      MAG   ANG      MAG   ANG
 0.010  0.9825   -0.8   1.839  179.5  0.0007   71.9  0.9987   -0.1
 0.020  0.9823   -1.0   1.787  179.5  0.0022   87.1  0.9985   -0.5
 0.050  0.9776   -2.5   1.798  177.7  0.0052   89.3  0.9986   -1.4
 0.100  0.9791   -5.1   1.809  175.7  0.0106   87.1  0.9979   -2.9
 0.150  0.9803   -7.5   1.811  173.5  0.0159   85.5  0.9962   -4.4
 0.200  0.9810  -10.1   1.811  171.2  0.0211   83.7  0.9939   -5.8
 0.250  0.9782  -12.5   1.804  168.8  0.0265   82.3  0.9913   -7.3
 0.300  0.9767  -15.1   1.806  166.7  0.0318   80.6  0.9880   -8.7
 0.350  0.9740  -17.7   1.805  164.5  0.0371   79.0  0.9841  -10.1
 0.400  0.9735  -20.1   1.798  162.3  0.0423   77.3  0.9796  -11.5
 0.450  0.9708  -22.8   1.794  160.0  0.0475   75.6  0.9750  -12.9
 0.500  0.9685  -25.3   1.788  157.7  0.0527   74.0  0.9694  -14.3
 0.600  0.9627  -30.4   1.771  153.2  0.0628   70.7  0.9576  -17.0
 0.700  0.9558  -35.5   1.756  148.9  0.0727   67.3  0.9441  -19.7
 0.800  0.9489  -40.5   1.733  144.6  0.0823   64.1  0.9294  -22.2
 0.900  0.9403  -45.6   1.710  140.3  0.0916   60.8  0.9143  -24.7
 1.000  0.9326  -50.7   1.686  136.2  0.1006   57.7  0.8981  -27.2
 1.100  0.9245  -55.7   1.658  132.2  0.1090   54.5  0.8814  -29.5
 1.200  0.9153  -60.8   1.631  128.1  0.1173   51.4  0.8640  -31.9
 1.300  0.9067  -65.7   1.603  124.3  0.1251   48.4  0.8476  -34.1
 1.400  0.8978  -70.7   1.576  120.3  0.1324   45.2  0.8301  -36.3
 1.500  0.8892  -75.6   1.550  116.7  0.1394   42.4  0.8130  -38.3
 1.600  0.8806  -80.4   1.522  112.9  0.1455   39.3  0.7955  -40.4
 1.700  0.8704  -85.2   1.495  109.3  0.1518   36.5  0.7789  -42.3
 1.800  0.8622  -90.0   1.463  105.7  0.1572   33.6  0.7625  -44.2
 1.900  0.8545  -94.9   1.440  102.2  0.1625   30.8  0.7454  -46.1
 2.000  0.8443  -99.3   1.410   98.9  0.1670   28.2  0.7299  -47.8
 2.200  0.8266 -108.7   1.360   92.0  0.1755   22.8  0.6982  -51.3
 2.400  0.8101 -118.0   1.308   85.5  0.1824   17.5  0.6678  -54.6
 2.600  0.7958 -127.3   1.259   79.1  0.1874   12.3  0.6383  -57.9
 2.800  0.7820 -136.2   1.207   73.0  0.1906    7.5  0.6110  -61.0
 3.000  0.7729 -144.7   1.161   67.1  0.1926    2.7  0.5861  -64.1
 3.500  0.7604 -165.7   1.054   53.0  0.1921   -8.2  0.5289  -72.1
 4.000  0.7608  175.6   0.957   39.8  0.1867  -17.5  0.4847  -80.4
 4.500  0.7667  160.0   0.859   27.6  0.1771  -26.1  0.4525  -89.7
 5.000  0.7669  147.6   0.769   17.2  0.1634  -33.4  0.4276  -99.1
 5.500  0.7691  136.5   0.695    7.9  0.1472  -39.1  0.4052 -108.6
 6.000  0.7801  126.4   0.636   -0.7  0.1310  -42.6  0.3903 -118.7
 6.500  0.7973  117.5   0.589   -9.0  0.1178  -44.3  0.3826 -129.3
 7.000  0.8114  109.3   0.547  -17.1  0.1072  -44.1  0.3767 -140.5
 7.500  0.8200  101.1   0.508  -24.5  0.0991  -42.8  0.3733 -153.0
 8.000  0.8238   92.0   0.466  -32.2  0.0928  -40.6  0.3729 -166.8
 8.500  0.8233   83.1   0.423  -38.9  0.0880  -37.2  0.3711  177.8
 9.000  0.8451   75.3   0.388  -44.7  0.0868  -32.2  0.3866  161.2
 9.500  0.8918   69.3   0.356  -49.6  0.0898  -27.4  0.4360  146.3
10.000  0.9276   64.9   0.320  -54.6  0.0970  -24.3  0.5080  135.0
!
!  f       Fmin   Gammaopt  rn/50
! GHz       dB    MAG  ANG    -
 0.900      0.68  0.78   35   0.65
 1.800      1.42  0.60   75   0.50
 2.400      1.57  0.58   98   0.37
 3.000      2.10  0.58  128   0.24
 4.000      2.49  0.57  177   0.09
!
! (c) 2009  Infineon Technologies AG, Munich