! Infineon Technologies  Discrete & RF Semiconductors
! BFP420
!
! VCE =  2.5 V,  IC =  1.0 mA
! Common Emitter S-Parameters:                            Nov 2009
# GHz  S  MA  R  50
!  f         S11            S21            S12            S22
! GHz     MAG   ANG      MAG   ANG      MAG   ANG      MAG   ANG
 0.010  0.9722   -0.8   3.793  179.2  0.0004   73.5  0.9978   -0.1
 0.020  0.9621   -1.3   3.667  179.4  0.0020   92.1  0.9974   -0.6
 0.050  0.9623   -2.7   3.692  177.6  0.0051   88.3  0.9974   -1.6
 0.100  0.9609   -6.0   3.720  175.2  0.0099   87.0  0.9967   -3.4
 0.150  0.9588   -9.0   3.720  172.7  0.0150   85.1  0.9946   -5.0
 0.200  0.9605  -11.9   3.717  170.3  0.0199   83.1  0.9920   -6.7
 0.250  0.9570  -15.0   3.699  167.6  0.0250   81.2  0.9889   -8.4
 0.300  0.9546  -18.0   3.699  165.3  0.0299   79.3  0.9846  -10.1
 0.350  0.9512  -21.0   3.689  162.9  0.0348   77.4  0.9799  -11.7
 0.400  0.9488  -23.9   3.668  160.5  0.0396   75.6  0.9742  -13.3
 0.450  0.9448  -27.0   3.653  158.1  0.0444   73.9  0.9685  -14.9
 0.500  0.9403  -30.0   3.628  155.6  0.0491   72.1  0.9614  -16.5
 0.600  0.9320  -35.9   3.581  150.8  0.0583   68.3  0.9467  -19.7
 0.700  0.9207  -41.9   3.523  146.1  0.0671   64.7  0.9296  -22.8
 0.800  0.9097  -47.8   3.449  141.5  0.0755   61.3  0.9111  -25.7
 0.900  0.8975  -53.6   3.378  137.0  0.0834   57.8  0.8916  -28.5
 1.000  0.8848  -59.4   3.303  132.8  0.0909   54.5  0.8712  -31.4
 1.100  0.8735  -65.0   3.223  128.6  0.0979   51.3  0.8502  -34.0
 1.200  0.8607  -70.7   3.142  124.3  0.1045   48.0  0.8287  -36.6
 1.300  0.8490  -76.1   3.063  120.5  0.1106   45.0  0.8074  -39.1
 1.400  0.8365  -81.7   2.985  116.5  0.1162   41.9  0.7858  -41.5
 1.500  0.8251  -87.0   2.906  112.9  0.1214   39.1  0.7646  -43.8
 1.600  0.8137  -92.3   2.830  109.0  0.1258   36.1  0.7433  -46.0
 1.700  0.8015  -97.4   2.756  105.5  0.1304   33.4  0.7231  -48.1
 1.800  0.7908 -102.4   2.672  102.0  0.1340   30.8  0.7033  -50.0
 1.900  0.7811 -107.6   2.605   98.6  0.1376   28.1  0.6829  -52.1
 2.000  0.7691 -112.2   2.530   95.4  0.1406   25.7  0.6647  -53.8
 2.200  0.7500 -122.0   2.400   88.9  0.1459   20.8  0.6272  -57.5
 2.400  0.7331 -131.4   2.273   82.8  0.1498   16.1  0.5917  -61.0
 2.600  0.7208 -140.9   2.154   76.9  0.1523   11.7  0.5581  -64.4
 2.800  0.7084 -149.6   2.039   71.4  0.1536    7.7  0.5275  -67.5
 3.000  0.7016 -157.9   1.936   66.1  0.1541    3.8  0.4994  -70.5
 3.500  0.6962 -178.1   1.712   53.3  0.1520   -4.8  0.4370  -78.6
 4.000  0.7034  164.8   1.520   41.5  0.1473  -11.7  0.3886  -87.0
 4.500  0.7120  150.8   1.347   30.5  0.1404  -17.6  0.3534  -96.5
 5.000  0.7161  139.8   1.196   21.0  0.1318  -22.0  0.3274 -105.9
 5.500  0.7220  129.9   1.077   12.4  0.1225  -25.0  0.3061 -115.6
 6.000  0.7358  120.7   0.982    4.3  0.1143  -26.0  0.2915 -126.2
 6.500  0.7535  112.7   0.907   -3.9  0.1093  -25.9  0.2830 -137.4
 7.000  0.7684  105.2   0.841  -11.8  0.1069  -24.9  0.2772 -149.0
 7.500  0.7785   97.6   0.781  -19.6  0.1072  -24.2  0.2754 -162.2
 8.000  0.7851   89.2   0.717  -27.6  0.1080  -24.3  0.2778 -176.9
 8.500  0.7903   80.8   0.652  -34.7  0.1079  -24.5  0.2818  166.9
 9.000  0.8155   73.4   0.598  -41.1  0.1088  -23.8  0.3063  149.5
 9.500  0.8639   67.8   0.551  -46.9  0.1119  -22.8  0.3622  135.6
10.000  0.9018   63.7   0.496  -53.0  0.1178  -22.6  0.4337  126.1
!
!  f       Fmin   Gammaopt  rn/50
! GHz       dB    MAG  ANG    -
 0.900      0.53  0.67   34   0.35
 1.800      1.15  0.44   77   0.27
 2.400      1.28  0.44  100   0.22
 3.000      1.61  0.45  131   0.15
 4.000      1.90  0.47 -177   0.09
 5.000      2.32  0.44 -133   0.45
 6.000      3.43  0.60 -118   0.25
!
! (c) 2009  Infineon Technologies AG, Munich