! Infineon Technologies  Discrete & RF Semiconductors
! BFP420
!
! VCE =  2.0 V,  IC =  1.0 mA
! Common Emitter S-Parameters:                            Nov 2009
# GHz  S  MA  R  50
!  f         S11            S21            S12            S22
! GHz     MAG   ANG      MAG   ANG      MAG   ANG      MAG   ANG
 0.010  0.9618   -1.0   3.866  179.5  0.0010  114.3  0.9973   -0.1
 0.020  0.9604   -1.1   3.731  179.4  0.0020   89.7  0.9971   -0.7
 0.050  0.9627   -2.9   3.759  177.6  0.0050   90.7  0.9974   -1.7
 0.100  0.9584   -6.1   3.786  175.1  0.0105   86.3  0.9963   -3.5
 0.150  0.9584   -9.2   3.786  172.6  0.0158   84.8  0.9941   -5.3
 0.200  0.9581  -12.2   3.784  170.1  0.0210   82.9  0.9910   -7.1
 0.250  0.9548  -15.2   3.765  167.4  0.0262   81.0  0.9876   -8.8
 0.300  0.9529  -18.3   3.763  165.0  0.0314   79.1  0.9832  -10.6
 0.350  0.9492  -21.4   3.751  162.5  0.0365   77.2  0.9778  -12.3
 0.400  0.9473  -24.4   3.729  160.0  0.0415   75.3  0.9714  -14.0
 0.450  0.9427  -27.5   3.710  157.5  0.0466   73.4  0.9652  -15.7
 0.500  0.9381  -30.6   3.687  155.0  0.0515   71.5  0.9575  -17.4
 0.600  0.9294  -36.6   3.630  150.1  0.0611   67.8  0.9415  -20.7
 0.700  0.9183  -42.7   3.570  145.4  0.0702   64.1  0.9230  -23.9
 0.800  0.9057  -48.6   3.491  140.7  0.0789   60.5  0.9032  -26.9
 0.900  0.8936  -54.6   3.414  136.2  0.0870   57.0  0.8823  -29.9
 1.000  0.8817  -60.4   3.334  131.9  0.0948   53.6  0.8605  -32.8
 1.100  0.8686  -66.1   3.248  127.7  0.1019   50.4  0.8385  -35.5
 1.200  0.8563  -71.9   3.165  123.4  0.1087   47.1  0.8154  -38.3
 1.300  0.8439  -77.4   3.080  119.5  0.1149   44.0  0.7934  -40.8
 1.400  0.8313  -83.0   2.996  115.5  0.1205   40.9  0.7708  -43.3
 1.500  0.8192  -88.3   2.915  111.8  0.1258   38.0  0.7488  -45.6
 1.600  0.8085  -93.6   2.837  108.0  0.1303   35.1  0.7267  -47.8
 1.700  0.7957  -98.9   2.759  104.5  0.1348   32.4  0.7059  -50.0
 1.800  0.7853 -103.8   2.674  101.0  0.1384   29.7  0.6857  -52.0
 1.900  0.7755 -109.1   2.604   97.6  0.1420   27.1  0.6647  -54.1
 2.000  0.7652 -113.7   2.529   94.4  0.1450   24.6  0.6461  -55.9
 2.200  0.7450 -123.4   2.395   87.9  0.1502   19.8  0.6082  -59.6
 2.400  0.7289 -132.9   2.264   81.8  0.1540   15.1  0.5723  -63.2
 2.600  0.7164 -142.3   2.145   75.9  0.1564   10.7  0.5386  -66.7
 2.800  0.7048 -151.0   2.027   70.4  0.1576    6.7  0.5078  -69.9
 3.000  0.6986 -159.4   1.926   65.1  0.1580    2.8  0.4798  -73.1
 3.500  0.6937 -179.3   1.699   52.4  0.1557   -5.7  0.4178  -81.4
 4.000  0.7020  163.8   1.508   40.6  0.1508  -12.6  0.3704  -90.3
 4.500  0.7115  149.9   1.335   29.7  0.1437  -18.5  0.3362 -100.3
 5.000  0.7154  139.0   1.185   20.3  0.1349  -22.8  0.3120 -110.0
 5.500  0.7218  129.3   1.067   11.7  0.1254  -25.9  0.2926 -120.2
 6.000  0.7361  120.3   0.973    3.6  0.1172  -27.0  0.2802 -131.3
 6.500  0.7544  112.2   0.899   -4.5  0.1120  -26.9  0.2741 -142.9
 7.000  0.7687  104.8   0.833  -12.5  0.1096  -26.1  0.2706 -154.8
 7.500  0.7790   97.3   0.774  -20.2  0.1097  -25.6  0.2720 -168.2
 8.000  0.7852   88.9   0.710  -28.2  0.1102  -25.9  0.2778  177.2
 8.500  0.7906   80.5   0.645  -35.4  0.1098  -26.2  0.2858  161.3
 9.000  0.8160   73.2   0.592  -41.7  0.1103  -25.4  0.3146  144.7
 9.500  0.8639   67.6   0.545  -47.5  0.1132  -24.5  0.3731  131.7
10.000  0.9026   63.5   0.491  -53.4  0.1188  -24.3  0.4454  122.8
!
!  f       Fmin   Gammaopt  rn/50
! GHz       dB    MAG  ANG    -
 0.900      0.53  0.67   34   0.35
 1.800      1.15  0.44   77   0.27
 2.400      1.28  0.44  100   0.22
 3.000      1.61  0.45  131   0.15
 4.000      1.90  0.47 -177   0.09
 5.000      2.32  0.44 -133   0.45
 6.000      3.43  0.60 -118   0.25
!
! (c) 2009  Infineon Technologies AG, Munich