! Infineon Technologies  Discrete & RF Semiconductors
! BFP420
!
! VCE =  2.5 V,  IC =  20 mA
! Common Emitter S-Parameters:                            Nov 2009
# GHz  S  MA  R  50
!  f         S11            S21            S12            S22
! GHz     MAG   ANG      MAG   ANG      MAG   ANG      MAG   ANG
 0.010  0.5311   -4.0  41.707  179.1  0.0008   85.6  0.9459    1.7
 0.020  0.5286   -5.3  40.813  176.4  0.0018   90.0  0.9569   -2.2
 0.050  0.5246  -13.2  40.476  171.4  0.0036   84.8  0.9568   -6.6
 0.100  0.5235  -27.1  39.638  163.2  0.0075   78.9  0.9392  -13.8
 0.150  0.5132  -40.1  38.050  155.4  0.0109   75.4  0.9068  -20.4
 0.200  0.5049  -52.1  36.165  148.3  0.0139   70.9  0.8663  -26.4
 0.250  0.4929  -63.1  33.987  141.7  0.0166   67.5  0.8218  -31.8
 0.300  0.4827  -73.5  31.962  135.8  0.0189   64.6  0.7754  -36.7
 0.350  0.4726  -82.9  29.914  130.6  0.0210   62.1  0.7306  -41.0
 0.400  0.4649  -91.2  27.970  125.8  0.0229   60.0  0.6878  -44.7
 0.450  0.4572  -98.9  26.151  121.6  0.0245   58.5  0.6479  -48.1
 0.500  0.4517 -105.8  24.467  117.7  0.0260   57.1  0.6109  -51.2
 0.600  0.4434 -118.0  21.538  110.9  0.0287   55.2  0.5467  -56.4
 0.700  0.4376 -128.1  19.108  105.3  0.0311   54.2  0.4932  -60.8
 0.800  0.4346 -136.6  17.084  100.5  0.0334   53.5  0.4487  -64.6
 0.900  0.4335 -144.0  15.411   96.3  0.0358   53.0  0.4113  -68.1
 1.000  0.4345 -150.5  14.000   92.5  0.0380   52.7  0.3789  -71.4
 1.100  0.4349 -156.1  12.793   89.2  0.0403   52.6  0.3517  -74.3
 1.200  0.4374 -161.2  11.758   86.0  0.0426   52.3  0.3270  -77.5
 1.300  0.4393 -165.8  10.866   83.2  0.0449   52.1  0.3059  -80.3
 1.400  0.4421 -170.0  10.091   80.6  0.0472   51.9  0.2871  -83.3
 1.500  0.4436 -173.9   9.416   78.1  0.0495   51.6  0.2699  -86.1
 1.600  0.4466 -177.4   8.815   75.7  0.0519   51.3  0.2552  -88.9
 1.700  0.4486  179.0   8.287   73.5  0.0543   50.9  0.2412  -91.9
 1.800  0.4501  175.9   7.800   71.3  0.0566   50.4  0.2289  -94.6
 1.900  0.4541  172.8   7.369   69.3  0.0590   49.9  0.2170  -98.1
 2.000  0.4550  169.9   6.989   67.3  0.0615   49.4  0.2065 -100.7
 2.200  0.4600  164.3   6.320   63.4  0.0663   48.3  0.1874 -107.4
 2.400  0.4685  159.1   5.760   59.8  0.0710   46.9  0.1713 -115.1
 2.600  0.4780  154.0   5.285   56.2  0.0756   45.5  0.1584 -123.4
 2.800  0.4871  149.5   4.877   52.9  0.0802   44.1  0.1485 -132.2
 3.000  0.4976  145.3   4.527   49.6  0.0849   42.5  0.1414 -141.3
 3.500  0.5291  135.3   3.821   41.6  0.0959   38.2  0.1390 -165.8
 4.000  0.5593  126.4   3.289   33.9  0.1066   33.8  0.1532  173.8
 4.500  0.5818  119.3   2.863   26.6  0.1164   29.1  0.1754  159.1
 5.000  0.5956  113.7   2.528   20.1  0.1254   24.8  0.1941  148.2
 5.500  0.6112  107.8   2.267   13.8  0.1339   20.5  0.2146  139.0
 6.000  0.6316  102.1   2.061    7.5  0.1425   16.3  0.2377  130.6
 6.500  0.6538   96.8   1.890    0.9  0.1513   11.6  0.2592  122.9
 7.000  0.6699   91.6   1.747   -5.8  0.1605    6.9  0.2754  115.2
 7.500  0.6819   86.0   1.620  -12.6  0.1690    1.4  0.2973  108.4
 8.000  0.6959   79.6   1.484  -19.7  0.1741   -4.7  0.3251  101.5
 8.500  0.7146   72.8   1.346  -26.1  0.1746  -10.0  0.3602   93.9
 9.000  0.7498   66.8   1.230  -31.6  0.1747  -13.9  0.4094   87.4
 9.500  0.8030   62.3   1.145  -36.8  0.1763  -17.4  0.4681   83.1
10.000  0.8439   59.0   1.038  -42.1  0.1781  -21.1  0.5186   79.6
!
!  f       Fmin   Gammaopt  rn/50
! GHz       dB    MAG  ANG    -
 0.900      1.23  0.16 -154   0.13
 1.800      1.51  0.24 -144   0.13
 2.400      1.66  0.22 -141   0.15
 3.000      1.69  0.30 -132   0.16
 4.000      1.82  0.42 -115   0.23
 5.000      2.28  0.48  -96   0.37
 6.000      2.65  0.52  -86   0.56
!
! (c) 2009  Infineon Technologies AG, Munich