! Infineon Technologies  Discrete & RF Semiconductors
! BFP420
!
! VCE =  2.5 V,  IC =  35 mA
! Common Emitter S-Parameters:                            Nov 2009
# GHz  S  MA  R  50
!  f         S11            S21            S12            S22
! GHz     MAG   ANG      MAG   ANG      MAG   ANG      MAG   ANG
 0.010  0.3472   -4.9  52.638  179.4  0.0012  105.2  0.9106    3.0
 0.020  0.3550   -9.0  51.543  175.9  0.0017   86.4  0.9319   -2.1
 0.050  0.3565  -20.7  51.035  169.7  0.0036   85.4  0.9356   -7.6
 0.100  0.3624  -40.0  49.360  159.7  0.0067   78.4  0.9096  -16.4
 0.150  0.3655  -57.9  46.470  150.6  0.0094   74.0  0.8639  -24.2
 0.200  0.3701  -73.0  43.194  142.6  0.0118   70.0  0.8091  -30.9
 0.250  0.3719  -86.4  39.715  135.4  0.0139   66.8  0.7529  -36.6
 0.300  0.3773  -97.9  36.584  129.3  0.0158   64.6  0.6979  -41.5
 0.350  0.3821 -107.6  33.627  124.0  0.0174   62.8  0.6476  -45.7
 0.400  0.3853 -115.8  30.962  119.3  0.0189   61.6  0.6024  -49.2
 0.450  0.3891 -122.9  28.571  115.2  0.0202   60.7  0.5619  -52.3
 0.500  0.3927 -129.2  26.442  111.6  0.0215   60.2  0.5257  -55.0
 0.600  0.3993 -139.6  22.884  105.3  0.0240   59.5  0.4653  -59.7
 0.700  0.4050 -147.9  20.057  100.2  0.0264   59.3  0.4174  -63.5
 0.800  0.4093 -154.8  17.774   95.8  0.0288   59.2  0.3787  -66.9
 0.900  0.4151 -160.5  15.934   92.0  0.0312   59.2  0.3466  -70.0
 1.000  0.4200 -165.7  14.397   88.6  0.0337   59.2  0.3190  -73.1
 1.100  0.4238 -170.0  13.106   85.6  0.0362   59.1  0.2961  -75.9
 1.200  0.4287 -174.0  12.011   82.7  0.0387   59.0  0.2754  -79.0
 1.300  0.4334 -177.7  11.077   80.2  0.0412   58.7  0.2578  -81.8
 1.400  0.4374  178.9  10.266   77.7  0.0438   58.4  0.2422  -84.9
 1.500  0.4400  175.8   9.566   75.5  0.0464   58.0  0.2278  -87.7
 1.600  0.4437  173.1   8.941   73.3  0.0489   57.5  0.2156  -90.7
 1.700  0.4472  170.1   8.396   71.2  0.0515   56.9  0.2039  -93.8
 1.800  0.4501  167.6   7.900   69.1  0.0541   56.3  0.1937  -96.7
 1.900  0.4541  164.9   7.454   67.2  0.0567   55.7  0.1840 -100.4
 2.000  0.4555  162.6   7.065   65.4  0.0593   55.0  0.1750 -103.2
 2.200  0.4622  157.6   6.384   61.7  0.0645   53.5  0.1594 -110.6
 2.400  0.4698  153.2   5.814   58.3  0.0694   51.8  0.1466 -119.1
 2.600  0.4816  148.7   5.333   54.8  0.0744   50.1  0.1370 -128.3
 2.800  0.4898  144.8   4.918   51.6  0.0793   48.5  0.1302 -137.9
 3.000  0.5012  141.1   4.564   48.5  0.0842   46.6  0.1262 -147.8
 3.500  0.5335  131.9   3.850   40.7  0.0958   41.9  0.1314 -173.0
 4.000  0.5633  123.8   3.313   33.2  0.1070   37.0  0.1509  167.8
 4.500  0.5857  117.2   2.886   26.1  0.1170   31.9  0.1760  154.4
 5.000  0.5990  111.9   2.549   19.8  0.1265   27.3  0.1965  144.4
 5.500  0.6145  106.3   2.287   13.5  0.1353   22.8  0.2182  135.9
 6.000  0.6349  100.8   2.079    7.3  0.1441   18.3  0.2424  128.0
 6.500  0.6573   95.8   1.906    0.8  0.1531   13.4  0.2644  120.7
 7.000  0.6738   90.6   1.762   -5.9  0.1624    8.4  0.2810  113.2
 7.500  0.6851   85.1   1.633  -12.6  0.1710    2.8  0.3030  106.7
 8.000  0.6987   78.9   1.497  -19.7  0.1761   -3.4  0.3308  100.1
 8.500  0.7182   72.2   1.357  -26.1  0.1766   -8.8  0.3661   92.6
 9.000  0.7530   66.2   1.241  -31.5  0.1767  -12.8  0.4154   86.4
 9.500  0.8058   61.8   1.154  -36.7  0.1783  -16.4  0.4741   82.2
10.000  0.8464   58.6   1.047  -41.9  0.1800  -20.2  0.5243   78.7
!
!  f       Fmin   Gammaopt  rn/50
! GHz       dB    MAG  ANG    -
 0.900      1.64  0.30 -155   0.13
 1.800      1.90  0.37 -142   0.15
 2.400      2.10  0.34 -134   0.19
 3.000      2.11  0.40 -126   0.22
 4.000      2.25  0.50 -110   0.35
 5.000      2.73  0.54  -94   0.59
 6.000      3.16  0.59  -82   0.84
!
! (c) 2009  Infineon Technologies AG, Munich