! Infineon Technologies  Discrete & RF Semiconductors
! BFP420
!
! VCE =  2.5 V,  IC =  1.2 mA
! Common Emitter S-Parameters:                            Nov 2009
# GHz  S  MA  R  50
!  f         S11            S21            S12            S22
! GHz     MAG   ANG      MAG   ANG      MAG   ANG      MAG   ANG
 0.010  0.9531   -1.1   4.563  179.4  0.0008   64.7  0.9968    0.0
 0.020  0.9555   -1.2   4.416  179.4  0.0020   88.4  0.9968   -0.6
 0.050  0.9555   -3.4   4.445  177.4  0.0050   89.3  0.9972   -1.7
 0.100  0.9542   -6.5   4.474  174.9  0.0100   86.2  0.9960   -3.6
 0.150  0.9513   -9.6   4.475  172.4  0.0149   84.2  0.9938   -5.4
 0.200  0.9512  -12.7   4.469  169.8  0.0198   82.6  0.9907   -7.2
 0.250  0.9479  -15.9   4.442  167.1  0.0248   80.7  0.9872   -8.9
 0.300  0.9450  -19.1   4.443  164.6  0.0297   78.8  0.9825  -10.7
 0.350  0.9416  -22.3   4.423  162.1  0.0345   76.9  0.9772  -12.4
 0.400  0.9383  -25.4   4.396  159.6  0.0393   75.0  0.9708  -14.2
 0.450  0.9335  -28.6   4.372  157.0  0.0440   73.1  0.9643  -15.9
 0.500  0.9289  -31.8   4.339  154.5  0.0486   71.2  0.9564  -17.6
 0.600  0.9184  -38.1   4.267  149.5  0.0576   67.3  0.9399  -21.0
 0.700  0.9065  -44.4   4.192  144.6  0.0661   63.7  0.9209  -24.2
 0.800  0.8930  -50.5   4.087  140.0  0.0742   60.1  0.9004  -27.3
 0.900  0.8798  -56.6   3.992  135.3  0.0817   56.6  0.8788  -30.3
 1.000  0.8661  -62.7   3.892  130.9  0.0889   53.2  0.8562  -33.3
 1.100  0.8525  -68.5   3.782  126.7  0.0953   50.0  0.8334  -36.0
 1.200  0.8390  -74.4   3.676  122.5  0.1015   46.7  0.8097  -38.8
 1.300  0.8257  -80.1   3.571  118.5  0.1071   43.7  0.7871  -41.3
 1.400  0.8122  -85.8   3.467  114.5  0.1121   40.7  0.7638  -43.8
 1.500  0.8005  -91.1   3.367  110.8  0.1169   37.9  0.7411  -46.1
 1.600  0.7887  -96.5   3.268  107.0  0.1209   35.0  0.7185  -48.4
 1.700  0.7754 -101.9   3.171  103.5  0.1249   32.4  0.6971  -50.5
 1.800  0.7646 -106.9   3.069  100.1  0.1280   29.8  0.6763  -52.5
 1.900  0.7541 -112.1   2.984   96.7  0.1312   27.3  0.6550  -54.6
 2.000  0.7436 -116.8   2.890   93.5  0.1338   25.0  0.6360  -56.4
 2.200  0.7237 -126.5   2.726   87.2  0.1383   20.3  0.5972  -60.1
 2.400  0.7069 -136.1   2.570   81.2  0.1416   15.9  0.5606  -63.6
 2.600  0.6959 -145.4   2.427   75.4  0.1436   11.7  0.5264  -67.0
 2.800  0.6855 -154.0   2.289   70.1  0.1445    8.0  0.4952  -70.2
 3.000  0.6795 -162.3   2.168   64.9  0.1448    4.4  0.4667  -73.3
 3.500  0.6763  178.1   1.903   52.5  0.1427   -3.3  0.4038  -81.5
 4.000  0.6864  161.6   1.682   41.1  0.1388   -9.4  0.3556  -90.2
 4.500  0.6975  148.0   1.485   30.4  0.1331  -14.6  0.3207 -100.0
 5.000  0.7024  137.5   1.317   21.3  0.1262  -18.2  0.2951 -109.7
 5.500  0.7090  127.9   1.185   12.8  0.1190  -20.6  0.2750 -119.8
 6.000  0.7233  119.1   1.079    4.9  0.1131  -21.3  0.2616 -130.9
 6.500  0.7420  111.3   0.997   -3.1  0.1101  -21.1  0.2541 -142.6
 7.000  0.7573  104.0   0.924  -11.1  0.1099  -20.4  0.2493 -154.6
 7.500  0.7673   96.6   0.858  -18.8  0.1118  -20.4  0.2497 -168.2
 8.000  0.7750   88.4   0.788  -26.7  0.1138  -21.4  0.2549  176.9
 8.500  0.7816   80.0   0.716  -33.9  0.1143  -22.4  0.2625  160.4
 9.000  0.8076   72.8   0.657  -40.4  0.1153  -22.5  0.2917  143.3
 9.500  0.8565   67.3   0.606  -46.3  0.1182  -22.3  0.3501  130.3
10.000  0.8955   63.3   0.546  -52.4  0.1237  -22.7  0.4211  121.8
!
!  f       Fmin   Gammaopt  rn/50
! GHz       dB    MAG  ANG    -
 0.900      0.53  0.62   33   0.31
 1.800      1.10  0.40   77   0.24
 2.400      1.23  0.41  100   0.20
 3.000      1.51  0.41  132   0.14
 4.000      1.80  0.44 -175   0.09
 5.000      2.23  0.45 -132   0.38
 6.000      3.18  0.57 -116   0.44
!
! (c) 2009  Infineon Technologies AG, Munich