! Infineon Technologies  Discrete & RF Semiconductors
! BFP420
!
! VCE =  2.5 V,  IC =  15 mA
! Common Emitter S-Parameters:                            Nov 2009
# GHz  S  MA  R  50
!  f         S11            S21            S12            S22
! GHz     MAG   ANG      MAG   ANG      MAG   ANG      MAG   ANG
 0.010  0.6103   -2.6  35.610  179.0  0.0009   75.4  0.9577    1.3
 0.020  0.6088   -4.4  34.754  176.8  0.0016   85.1  0.9671   -2.1
 0.050  0.6025  -11.5  34.547  172.3  0.0041   86.7  0.9661   -5.9
 0.100  0.6035  -22.7  34.034  165.1  0.0080   80.0  0.9520  -12.2
 0.150  0.5905  -33.6  32.973  158.1  0.0116   75.6  0.9266  -18.1
 0.200  0.5807  -43.9  31.674  151.6  0.0150   72.1  0.8935  -23.7
 0.250  0.5639  -53.9  30.108  145.3  0.0180   68.6  0.8567  -28.7
 0.300  0.5515  -63.2  28.648  139.7  0.0208   65.5  0.8165  -33.4
 0.350  0.5375  -71.9  27.094  134.7  0.0231   62.6  0.7763  -37.6
 0.400  0.5252  -79.8  25.579  129.9  0.0252   60.2  0.7368  -41.4
 0.450  0.5132  -87.2  24.120  125.6  0.0272   58.3  0.6990  -44.8
 0.500  0.5028  -94.1  22.735  121.7  0.0289   56.6  0.6631  -48.0
 0.600  0.4861 -106.4  20.260  114.6  0.0319   54.0  0.5988  -53.4
 0.700  0.4738 -117.0  18.139  108.8  0.0345   52.2  0.5435  -58.0
 0.800  0.4646 -126.0  16.324  103.7  0.0369   51.0  0.4965  -62.0
 0.900  0.4589 -134.0  14.802   99.2  0.0391   50.1  0.4562  -65.6
 1.000  0.4559 -141.2  13.495   95.3  0.0413   49.5  0.4211  -69.0
 1.100  0.4534 -147.3  12.372   91.7  0.0435   49.0  0.3912  -72.0
 1.200  0.4533 -153.1  11.399   88.4  0.0456   48.6  0.3639  -75.2
 1.300  0.4530 -158.2  10.557   85.4  0.0478   48.3  0.3406  -78.0
 1.400  0.4539 -162.9   9.817   82.6  0.0499   48.0  0.3197  -80.9
 1.500  0.4542 -167.2   9.175   80.0  0.0522   47.6  0.3006  -83.6
 1.600  0.4561 -171.1   8.597   77.5  0.0543   47.3  0.2840  -86.3
 1.700  0.4574 -175.1   8.088   75.2  0.0565   47.0  0.2682  -89.1
 1.800  0.4587 -178.4   7.620   72.9  0.0587   46.6  0.2544  -91.7
 1.900  0.4615  178.0   7.203   70.7  0.0609   46.1  0.2410  -95.0
 2.000  0.4608  175.0   6.835   68.7  0.0632   45.7  0.2291  -97.4
 2.200  0.4662  168.7   6.188   64.6  0.0677   44.6  0.2074 -103.6
 2.400  0.4723  162.9   5.642   60.9  0.0721   43.5  0.1886 -110.6
 2.600  0.4822  157.6   5.180   57.1  0.0764   42.2  0.1730 -118.3
 2.800  0.4907  152.7   4.782   53.7  0.0808   41.0  0.1603 -126.4
 3.000  0.5006  148.3   4.440   50.4  0.0852   39.5  0.1507 -134.9
 3.500  0.5319  137.5   3.750   42.1  0.0957   35.7  0.1413 -158.9
 4.000  0.5614  128.1   3.230   34.3  0.1059   31.6  0.1502  179.8
 4.500  0.5838  120.7   2.812   26.8  0.1152   27.2  0.1695  163.8
 5.000  0.5971  114.8   2.482   20.3  0.1240   23.1  0.1866  152.1
 5.500  0.6127  108.8   2.226   13.9  0.1322   19.1  0.2061  142.2
 6.000  0.6337  102.9   2.024    7.5  0.1405   15.0  0.2283  133.2
 6.500  0.6547   97.6   1.855    0.8  0.1492   10.6  0.2491  125.2
 7.000  0.6715   92.2   1.715   -5.9  0.1582    6.0  0.2651  117.3
 7.500  0.6836   86.5   1.590  -12.8  0.1667    0.6  0.2871  110.2
 8.000  0.6969   80.0   1.458  -19.9  0.1719   -5.3  0.3150  103.1
 8.500  0.7154   73.1   1.322  -26.5  0.1724  -10.5  0.3500   95.2
 9.000  0.7504   67.1   1.209  -32.0  0.1726  -14.4  0.3993   88.5
 9.500  0.8031   62.6   1.125  -37.2  0.1742  -17.8  0.4581   84.1
10.000  0.8442   59.3   1.020  -42.6  0.1761  -21.4  0.5092   80.7
!
!  f       Fmin   Gammaopt  rn/50
! GHz       dB    MAG  ANG    -
 0.900      1.06  0.09 -152   0.13
 1.800      1.36  0.18 -147   0.12
 2.400      1.49  0.17 -148   0.14
 3.000      1.53  0.25 -138   0.14
 4.000      1.67  0.38 -119   0.20
 5.000      2.14  0.44 -103   0.32
 6.000      2.48  0.50  -88   0.47
!
! (c) 2009  Infineon Technologies AG, Munich