! Infineon Technologies  Discrete & RF Semiconductors
! BFP420
!
! VCE =  2.0 V,  IC =  8.0 mA
! Common Emitter S-Parameters:                            Nov 2009
# GHz  S  MA  R  50
!  f         S11            S21            S12            S22
! GHz     MAG   ANG      MAG   ANG      MAG   ANG      MAG   ANG
 0.010  0.7513   -1.9  23.147  179.2  0.0008   76.2  0.9761    0.6
 0.020  0.7535   -3.2  22.591  177.8  0.0019   88.3  0.9813   -1.7
 0.050  0.7515   -7.6  22.578  174.2  0.0047   86.6  0.9803   -4.6
 0.100  0.7476  -16.0  22.484  168.8  0.0092   82.1  0.9725   -9.4
 0.150  0.7400  -24.0  22.124  163.2  0.0136   78.9  0.9584  -14.0
 0.200  0.7304  -31.5  21.640  158.0  0.0179   75.1  0.9391  -18.5
 0.250  0.7156  -39.1  20.994  152.7  0.0219   71.7  0.9164  -22.7
 0.300  0.7017  -46.3  20.405  147.9  0.0256   68.5  0.8898  -26.9
 0.350  0.6866  -53.3  19.708  143.4  0.0290   65.5  0.8615  -30.7
 0.400  0.6724  -59.9  18.979  139.0  0.0321   62.7  0.8318  -34.4
 0.450  0.6564  -66.3  18.240  134.9  0.0349   60.1  0.8020  -37.8
 0.500  0.6411  -72.5  17.496  130.9  0.0374   57.8  0.7716  -41.0
 0.600  0.6136  -83.9  16.070  123.8  0.0419   53.8  0.7136  -46.8
 0.700  0.5897  -94.3  14.740  117.5  0.0456   50.5  0.6592  -51.9
 0.800  0.5698 -103.6  13.512  112.0  0.0487   47.8  0.6099  -56.4
 0.900  0.5533 -112.2  12.442  107.0  0.0514   45.6  0.5657  -60.5
 1.000  0.5406 -120.1  11.488  102.5  0.0539   43.9  0.5257  -64.2
 1.100  0.5303 -127.1  10.631   98.5  0.0561   42.4  0.4906  -67.6
 1.200  0.5233 -133.7   9.876   94.7  0.0581   41.1  0.4578  -71.0
 1.300  0.5168 -139.7   9.205   91.3  0.0601   40.1  0.4293  -74.0
 1.400  0.5126 -145.4   8.605   88.1  0.0620   39.2  0.4034  -77.0
 1.500  0.5089 -150.5   8.081   85.2  0.0638   38.4  0.3797  -79.8
 1.600  0.5069 -155.3   7.599   82.3  0.0656   37.7  0.3587  -82.5
 1.700  0.5042 -160.1   7.175   79.6  0.0674   37.0  0.3389  -85.3
 1.800  0.5027 -164.1   6.776   77.1  0.0692   36.4  0.3214  -87.8
 1.900  0.5025 -168.5   6.424   74.6  0.0709   35.8  0.3043  -90.7
 2.000  0.5005 -172.1   6.106   72.4  0.0727   35.3  0.2893  -93.1
 2.200  0.5009 -179.8   5.549   67.8  0.0761   34.2  0.2612  -98.7
 2.400  0.5045  173.5   5.074   63.7  0.0796   33.1  0.2367 -104.7
 2.600  0.5119  167.0   4.670   59.6  0.0829   32.0  0.2157 -111.2
 2.800  0.5174  161.3   4.317   55.8  0.0863   31.0  0.1978 -118.1
 3.000  0.5261  156.1   4.014   52.2  0.0898   29.8  0.1831 -125.2
 3.500  0.5538  143.5   3.399   43.3  0.0981   26.8  0.1602 -146.5
 4.000  0.5805  132.9   2.930   34.9  0.1065   23.6  0.1572 -167.6
 4.500  0.6025  124.5   2.553   27.0  0.1143   20.1  0.1683  174.9
 5.000  0.6148  117.9   2.254   20.1  0.1216   16.8  0.1807  161.7
 5.500  0.6288  111.4   2.021   13.4  0.1287   13.5  0.1967  150.5
 6.000  0.6487  105.1   1.837    6.8  0.1360   10.2  0.2161  140.4
 6.500  0.6701   99.3   1.685    0.0  0.1440    6.3  0.2352  131.6
 7.000  0.6859   93.7   1.559   -7.0  0.1525    2.3  0.2506  123.2
 7.500  0.6979   87.8   1.446  -14.0  0.1607   -2.6  0.2724  115.6
 8.000  0.7103   81.0   1.326  -21.3  0.1658   -8.0  0.3001  107.8
 8.500  0.7269   74.0   1.203  -28.0  0.1664  -13.0  0.3341   99.1
 9.000  0.7601   67.7   1.100  -33.7  0.1666  -16.5  0.3829   91.9
 9.500  0.8122   63.1   1.023  -39.1  0.1683  -19.6  0.4420   87.2
10.000  0.8515   59.7   0.927  -44.5  0.1704  -23.0  0.4946   83.8
!
!  f       Fmin   Gammaopt  rn/50
! GHz       dB    MAG  ANG    -
 0.900      0.79  0.08   30   0.13
 1.800      1.14  0.06  171   0.12
 2.400      1.24  0.10  160   0.13
 3.000      1.32  0.17 -165   0.12
 4.000      1.46  0.32 -132   0.14
 5.000      1.85  0.39 -110   0.25
 6.000      2.30  0.46  -95   0.37
!
! (c) 2009  Infineon Technologies AG, Munich