! Infineon Technologies  Discrete & RF Semiconductors
! BFP420
!
! VCE =  2.5 V,  IC =  0.5 mA
! Common Emitter S-Parameters:                            Nov 2009
# GHz  S  MA  R  50
!  f         S11            S21            S12            S22
! GHz     MAG   ANG      MAG   ANG      MAG   ANG      MAG   ANG
 0.010  0.9859   -0.5   1.918  179.4  0.0009   95.7  0.9991   -0.1
 0.020  0.9811   -1.0   1.857  179.5  0.0020   89.4  0.9983   -0.5
 0.050  0.9813   -2.4   1.862  177.9  0.0052   88.2  0.9983   -1.4
 0.100  0.9798   -5.1   1.882  175.8  0.0101   87.5  0.9980   -2.8
 0.150  0.9794   -7.5   1.883  173.6  0.0151   85.5  0.9964   -4.2
 0.200  0.9801  -10.0   1.883  171.4  0.0202   83.7  0.9945   -5.6
 0.250  0.9787  -12.5   1.876  169.0  0.0252   82.4  0.9920   -7.0
 0.300  0.9760  -15.0   1.879  166.9  0.0303   80.7  0.9887   -8.4
 0.350  0.9743  -17.6   1.877  164.8  0.0353   79.1  0.9854   -9.8
 0.400  0.9731  -20.1   1.871  162.5  0.0403   77.5  0.9811  -11.1
 0.450  0.9705  -22.7   1.867  160.3  0.0453   75.9  0.9769  -12.5
 0.500  0.9674  -25.2   1.860  158.1  0.0502   74.3  0.9717  -13.8
 0.600  0.9629  -30.3   1.845  153.6  0.0598   71.0  0.9606  -16.5
 0.700  0.9555  -35.4   1.831  149.3  0.0693   67.7  0.9481  -19.1
 0.800  0.9484  -40.4   1.806  145.1  0.0785   64.5  0.9347  -21.6
 0.900  0.9403  -45.5   1.783  140.9  0.0873   61.3  0.9198  -24.0
 1.000  0.9320  -50.6   1.759  136.9  0.0960   58.2  0.9046  -26.4
 1.100  0.9241  -55.5   1.729  132.9  0.1040   55.1  0.8886  -28.7
 1.200  0.9155  -60.6   1.702  128.8  0.1120   52.0  0.8720  -31.0
 1.300  0.9067  -65.5   1.674  125.0  0.1195   49.0  0.8561  -33.2
 1.400  0.8974  -70.5   1.646  121.1  0.1266   45.9  0.8394  -35.3
 1.500  0.8889  -75.3   1.618  117.5  0.1333   43.0  0.8225  -37.4
 1.600  0.8802  -80.2   1.591  113.7  0.1393   40.0  0.8057  -39.4
 1.700  0.8699  -85.0   1.562  110.1  0.1453   37.2  0.7893  -41.3
 1.800  0.8617  -89.7   1.529  106.5  0.1505   34.3  0.7731  -43.1
 1.900  0.8530  -94.6   1.504  103.1  0.1556   31.6  0.7562  -45.0
 2.000  0.8436  -99.1   1.473   99.7  0.1600   28.9  0.7410  -46.7
 2.200  0.8259 -108.4   1.420   93.0  0.1682   23.6  0.7093  -50.2
 2.400  0.8091 -117.8   1.367   86.4  0.1749   18.3  0.6791  -53.5
 2.600  0.7950 -127.1   1.315   80.1  0.1797   13.2  0.6497  -56.7
 2.800  0.7805 -135.9   1.259   74.1  0.1828    8.4  0.6222  -59.8
 3.000  0.7716 -144.5   1.211   68.2  0.1849    3.7  0.5974  -62.8
 3.500  0.7585 -165.5   1.099   54.1  0.1844   -7.1  0.5396  -70.6
 4.000  0.7586  175.7   0.996   41.1  0.1793  -16.3  0.4948  -78.7
 4.500  0.7643  160.1   0.894   28.9  0.1701  -24.8  0.4615  -87.7
 5.000  0.7647  147.6   0.800   18.5  0.1571  -31.7  0.4355  -96.8
 5.500  0.7670  136.6   0.723    9.2  0.1415  -37.3  0.4118 -106.1
 6.000  0.7775  126.5   0.662    0.7  0.1262  -40.6  0.3953 -115.9
 6.500  0.7942  117.5   0.613   -7.6  0.1137  -41.9  0.3860 -126.2
 7.000  0.8084  109.4   0.569  -15.7  0.1039  -41.4  0.3783 -137.2
 7.500  0.8176  101.1   0.529  -23.2  0.0968  -39.8  0.3727 -149.4
 8.000  0.8207   92.1   0.485  -30.9  0.0915  -37.5  0.3699 -163.1
 8.500  0.8211   83.1   0.441  -37.7  0.0877  -34.1  0.3653 -178.5
 9.000  0.8428   75.4   0.404  -43.6  0.0872  -29.5  0.3775  164.5
 9.500  0.8894   69.4   0.372  -48.7  0.0907  -25.0  0.4240  149.2
10.000  0.9267   64.9   0.334  -53.9  0.0982  -22.3  0.4943  137.4
!
!  f       Fmin   Gammaopt  rn/50
! GHz       dB    MAG  ANG    -
 0.900      0.68  0.78   35   0.65
 1.800      1.42  0.60   75   0.50
 2.400      1.57  0.58   98   0.37
 3.000      2.10  0.58  128   0.24
 4.000      2.49  0.57  177   0.09
!
! (c) 2009  Infineon Technologies AG, Munich