! Infineon Technologies  Discrete & RF Semiconductors
! BFP420
!
! VCE =  2.0 V,  IC =  12 mA
! Common Emitter S-Parameters:                            Nov 2009
# GHz  S  MA  R  50
!  f         S11            S21            S12            S22
! GHz     MAG   ANG      MAG   ANG      MAG   ANG      MAG   ANG
 0.010  0.6673   -2.8  30.819  179.2  0.0005  106.4  0.9651    0.8
 0.020  0.6636   -4.0  30.145  177.2  0.0018   89.0  0.9721   -2.1
 0.050  0.6604  -10.3  30.058  173.0  0.0045   85.2  0.9715   -5.7
 0.100  0.6564  -20.6  29.723  166.3  0.0086   81.2  0.9592  -11.6
 0.150  0.6473  -30.4  28.960  159.7  0.0128   76.8  0.9375  -17.3
 0.200  0.6363  -39.8  27.997  153.6  0.0165   72.8  0.9088  -22.6
 0.250  0.6195  -49.0  26.799  147.6  0.0200   69.3  0.8761  -27.6
 0.300  0.6051  -57.8  25.675  142.2  0.0231   65.9  0.8398  -32.3
 0.350  0.5891  -65.9  24.445  137.2  0.0259   63.0  0.8025  -36.6
 0.400  0.5751  -73.5  23.213  132.5  0.0284   60.3  0.7654  -40.5
 0.450  0.5611  -80.7  22.011  128.2  0.0306   58.1  0.7291  -44.1
 0.500  0.5487  -87.4  20.851  124.3  0.0326   56.2  0.6941  -47.4
 0.600  0.5281  -99.6  18.738  117.1  0.0360   52.9  0.6298  -53.3
 0.700  0.5116 -110.3  16.880  111.1  0.0389   50.6  0.5736  -58.3
 0.800  0.4981 -119.5  15.257  105.8  0.0414   48.8  0.5248  -62.7
 0.900  0.4898 -127.8  13.889  101.2  0.0438   47.5  0.4826  -66.7
 1.000  0.4837 -135.3  12.701   97.1  0.0460   46.6  0.4456  -70.4
 1.100  0.4793 -141.7  11.668   93.4  0.0481   45.8  0.4137  -73.7
 1.200  0.4772 -147.7  10.768   89.9  0.0502   45.2  0.3848  -77.2
 1.300  0.4754 -153.2   9.987   86.8  0.0523   44.7  0.3599  -80.2
 1.400  0.4746 -158.2   9.300   83.9  0.0543   44.2  0.3375  -83.4
 1.500  0.4742 -162.8   8.701   81.2  0.0564   43.8  0.3170  -86.4
 1.600  0.4758 -166.9   8.160   78.6  0.0584   43.4  0.2995  -89.3
 1.700  0.4752 -171.2   7.683   76.2  0.0605   43.0  0.2829  -92.3
 1.800  0.4761 -174.8   7.243   73.8  0.0626   42.6  0.2681  -95.0
 1.900  0.4783 -178.5   6.851   71.6  0.0648   42.1  0.2543  -98.4
 2.000  0.4780  178.3   6.503   69.5  0.0669   41.7  0.2417 -101.1
 2.200  0.4818  171.6   5.893   65.3  0.0711   40.7  0.2191 -107.6
 2.400  0.4871  165.6   5.377   61.4  0.0753   39.6  0.2001 -114.8
 2.600  0.4968  160.0   4.941   57.5  0.0794   38.4  0.1845 -122.5
 2.800  0.5036  154.9   4.562   54.0  0.0835   37.4  0.1721 -130.5
 3.000  0.5138  150.2   4.236   50.6  0.0876   36.0  0.1628 -139.0
 3.500  0.5438  138.9   3.581   42.2  0.0976   32.5  0.1546 -162.0
 4.000  0.5724  129.2   3.083   34.2  0.1075   28.6  0.1641  178.0
 4.500  0.5943  121.6   2.685   26.6  0.1164   24.5  0.1831  162.8
 5.000  0.6076  115.5   2.369   19.9  0.1248   20.7  0.1997  151.5
 5.500  0.6222  109.3   2.124   13.5  0.1327   16.8  0.2187  142.0
 6.000  0.6422  103.3   1.932    7.0  0.1409   13.0  0.2404  133.2
 6.500  0.6637   97.9   1.771    0.3  0.1493    8.7  0.2611  125.3
 7.000  0.6800   92.4   1.638   -6.5  0.1583    4.2  0.2770  117.5
 7.500  0.6914   86.7   1.518  -13.5  0.1666   -1.0  0.2988  110.5
 8.000  0.7046   80.1   1.391  -20.6  0.1717   -6.8  0.3264  103.3
 8.500  0.7220   73.2   1.262  -27.2  0.1721  -12.0  0.3605   95.4
 9.000  0.7565   67.1   1.154  -32.7  0.1722  -15.7  0.4090   88.7
 9.500  0.8086   62.6   1.073  -37.9  0.1737  -19.0  0.4675   84.3
10.000  0.8486   59.2   0.972  -43.3  0.1756  -22.6  0.5184   80.9
!
!  f       Fmin   Gammaopt  rn/50
! GHz       dB    MAG  ANG    -
 0.900      0.95  0.03 -151   0.13
 1.800      1.27  0.13 -152   0.12
 2.400      1.38  0.13 -160   0.14
 3.000      1.43  0.22 -145   0.13
 4.000      1.58  0.35 -123   0.17
 5.000      2.03  0.43 -103   0.28
 6.000      2.40  0.47  -91   0.43
!
! (c) 2009  Infineon Technologies AG, Munich