! Infineon Technologies  Discrete & RF Semiconductors
! BFP420
!
! VCE =  2.5 V,  IC =  9.0 mA
! Common Emitter S-Parameters:                            Nov 2009
# GHz  S  MA  R  50
!  f         S11            S21            S12            S22
! GHz     MAG   ANG      MAG   ANG      MAG   ANG      MAG   ANG
 0.010  0.7270   -1.7  25.341  179.1  0.0005   87.4  0.9741    0.6
 0.020  0.7302   -3.6  24.686  177.6  0.0019   84.8  0.9795   -1.7
 0.050  0.7287   -8.2  24.636  173.9  0.0045   85.6  0.9788   -4.6
 0.100  0.7268  -16.6  24.486  168.3  0.0088   82.4  0.9703   -9.5
 0.150  0.7169  -24.9  24.036  162.6  0.0127   78.3  0.9552  -14.2
 0.200  0.7075  -32.8  23.473  157.2  0.0167   74.7  0.9346  -18.7
 0.250  0.6909  -40.5  22.716  151.8  0.0204   71.4  0.9103  -22.9
 0.300  0.6777  -48.0  22.021  146.9  0.0237   68.1  0.8824  -27.0
 0.350  0.6621  -55.2  21.215  142.3  0.0269   65.2  0.8527  -30.8
 0.400  0.6467  -62.0  20.384  137.9  0.0297   62.6  0.8220  -34.3
 0.450  0.6312  -68.6  19.540  133.7  0.0323   60.1  0.7911  -37.7
 0.500  0.6159  -74.8  18.703  129.8  0.0346   58.0  0.7601  -40.8
 0.600  0.5888  -86.4  17.109  122.6  0.0386   54.1  0.7012  -46.4
 0.700  0.5659  -96.9  15.644  116.4  0.0420   51.1  0.6469  -51.2
 0.800  0.5467 -106.2  14.304  110.9  0.0449   48.7  0.5982  -55.4
 0.900  0.5313 -114.7  13.142  106.0  0.0474   46.7  0.5547  -59.2
 1.000  0.5197 -122.6  12.111  101.6  0.0498   45.2  0.5154  -62.8
 1.100  0.5106 -129.6  11.192   97.6  0.0519   44.0  0.4811  -65.9
 1.200  0.5042 -136.1  10.383   93.9  0.0539   42.9  0.4494  -69.1
 1.300  0.4987 -142.0   9.671   90.6  0.0559   42.0  0.4217  -71.9
 1.400  0.4954 -147.5   9.031   87.4  0.0578   41.3  0.3965  -74.7
 1.500  0.4918 -152.6   8.475   84.5  0.0596   40.6  0.3734  -77.3
 1.600  0.4907 -157.3   7.963   81.7  0.0614   40.0  0.3530  -79.8
 1.700  0.4883 -162.0   7.515   79.1  0.0633   39.4  0.3336  -82.3
 1.800  0.4874 -166.0   7.096   76.6  0.0651   38.9  0.3165  -84.6
 1.900  0.4876 -170.2   6.722   74.2  0.0669   38.4  0.2998  -87.4
 2.000  0.4861 -173.8   6.388   72.0  0.0688   37.9  0.2851  -89.6
 2.200  0.4880  178.7   5.802   67.5  0.0725   36.9  0.2574  -94.8
 2.400  0.4910  172.0   5.303   63.4  0.0761   35.8  0.2329 -100.5
 2.600  0.4986  165.7   4.876   59.4  0.0796   34.7  0.2115 -106.7
 2.800  0.5057  160.2   4.506   55.7  0.0832   33.7  0.1931 -113.2
 3.000  0.5141  155.0   4.188   52.1  0.0868   32.5  0.1775 -120.1
 3.500  0.5421  142.7   3.545   43.4  0.0956   29.4  0.1518 -141.2
 4.000  0.5706  132.3   3.057   35.2  0.1045   26.1  0.1460 -163.3
 4.500  0.5923  124.1   2.664   27.4  0.1126   22.4  0.1556  178.1
 5.000  0.6053  117.6   2.350   20.5  0.1204   19.0  0.1674  164.0
 5.500  0.6202  111.1   2.109   13.9  0.1277   15.5  0.1831  152.1
 6.000  0.6404  104.8   1.917    7.3  0.1352   12.0  0.2024  141.5
 6.500  0.6617   99.3   1.758    0.5  0.1433    8.0  0.2215  132.3
 7.000  0.6784   93.6   1.626   -6.5  0.1520    3.9  0.2367  123.6
 7.500  0.6898   87.7   1.508  -13.5  0.1603   -1.0  0.2585  115.9
 8.000  0.7034   81.1   1.383  -20.7  0.1655   -6.6  0.2864  108.0
 8.500  0.7203   74.0   1.254  -27.3  0.1664  -11.6  0.3212   99.2
 9.000  0.7548   67.8   1.149  -33.0  0.1667  -15.3  0.3706   91.9
 9.500  0.8069   63.1   1.068  -38.4  0.1684  -18.5  0.4301   87.2
10.000  0.8475   59.8   0.968  -43.9  0.1706  -21.9  0.4830   83.8
!
!  f       Fmin   Gammaopt  rn/50
! GHz       dB    MAG  ANG    -
!
! noise parameter not availible yet for this operation point!
!
! (c) 2009  Infineon Technologies AG, Munich