! Infineon Technologies  Discrete & RF Semiconductors
! BFP420
!
! VCE =  2.0 V,  IC =  2.5 mA
! Common Emitter S-Parameters:                            Nov 2009
# GHz  S  MA  R  50
!  f         S11            S21            S12            S22
! GHz     MAG   ANG      MAG   ANG      MAG   ANG      MAG   ANG
 0.010  0.9192   -1.0   8.655  179.2  0.0009  126.1  0.9921    0.0
 0.020  0.9109   -1.7   8.427  179.0  0.0021   91.2  0.9938   -0.9
 0.050  0.9095   -4.2   8.464  176.7  0.0052   88.7  0.9939   -2.5
 0.100  0.9103   -8.5   8.505  173.5  0.0103   85.1  0.9918   -5.0
 0.150  0.9070  -12.7   8.484  170.2  0.0153   82.9  0.9878   -7.5
 0.200  0.9044  -16.9   8.443  167.0  0.0203   80.4  0.9822  -10.0
 0.250  0.8971  -21.2   8.363  163.5  0.0252   78.2  0.9753  -12.5
 0.300  0.8926  -25.5   8.311  160.4  0.0301   75.8  0.9668  -14.9
 0.350  0.8855  -29.7   8.235  157.3  0.0349   73.4  0.9570  -17.3
 0.400  0.8798  -33.7   8.134  154.2  0.0394   71.2  0.9454  -19.7
 0.450  0.8707  -37.9   8.029  151.1  0.0439   68.8  0.9337  -22.0
 0.500  0.8622  -41.9   7.913  148.0  0.0481   66.6  0.9199  -24.3
 0.600  0.8439  -50.0   7.663  142.1  0.0562   62.2  0.8914  -28.7
 0.700  0.8232  -57.8   7.391  136.5  0.0635   58.1  0.8599  -32.9
 0.800  0.8032  -65.3   7.087  131.2  0.0701   54.3  0.8278  -36.8
 0.900  0.7830  -72.6   6.797  126.1  0.0760   50.7  0.7947  -40.5
 1.000  0.7645  -79.6   6.510  121.4  0.0814   47.3  0.7619  -44.0
 1.100  0.7472  -86.3   6.220  116.9  0.0860   44.2  0.7303  -47.2
 1.200  0.7295  -93.0   5.948  112.5  0.0902   41.2  0.6982  -50.4
 1.300  0.7149  -99.3   5.686  108.5  0.0939   38.5  0.6688  -53.3
 1.400  0.7001 -105.4   5.435  104.5  0.0971   35.8  0.6397  -56.0
 1.500  0.6866 -111.1   5.202  101.0  0.1001   33.5  0.6121  -58.6
 1.600  0.6764 -116.8   4.981   97.3  0.1024   31.1  0.5860  -61.1
 1.700  0.6637 -122.3   4.777   94.0  0.1048   29.0  0.5613  -63.4
 1.800  0.6550 -127.3   4.568   90.8  0.1067   27.0  0.5384  -65.6
 1.900  0.6459 -132.6   4.385   87.7  0.1084   25.1  0.5152  -67.9
 2.000  0.6363 -137.2   4.211   84.7  0.1099   23.3  0.4950  -69.8
 2.200  0.6224 -146.8   3.900   79.0  0.1125   20.0  0.4549  -73.9
 2.400  0.6125 -155.8   3.619   73.6  0.1144   16.9  0.4182  -77.9
 2.600  0.6086 -164.6   3.370   68.5  0.1156   14.1  0.3850  -81.8
 2.800  0.6047 -172.5   3.144   63.8  0.1164   11.7  0.3550  -85.6
 3.000  0.6053 -180.0   2.949   59.2  0.1169    9.5  0.3282  -89.3
 3.500  0.6170  163.2   2.536   48.3  0.1174    4.8  0.2709 -100.2
 4.000  0.6353  148.9   2.210   38.2  0.1177    1.4  0.2297 -112.6
 4.500  0.6509  137.5   1.936   28.8  0.1176   -1.6  0.2043 -126.5
 5.000  0.6602  128.8   1.711   20.7  0.1174   -3.7  0.1892 -139.6
 5.500  0.6712  120.5   1.535   13.0  0.1175   -5.3  0.1815 -153.3
 6.000  0.6881  112.7   1.398    5.6  0.1188   -6.2  0.1808 -167.7
 6.500  0.7081  105.9   1.286   -1.9  0.1222   -7.4  0.1857  178.8
 7.000  0.7233   99.4   1.191   -9.5  0.1272   -8.9  0.1921  166.5
 7.500  0.7344   92.7   1.106  -16.9  0.1331  -11.4  0.2066  154.1
 8.000  0.7445   85.1   1.014  -24.7  0.1374  -14.9  0.2275  141.2
 8.500  0.7556   77.3   0.921  -31.7  0.1384  -18.2  0.2538  127.4
 9.000  0.7850   70.6   0.844  -38.0  0.1392  -20.3  0.2991  115.2
 9.500  0.8358   65.5   0.783  -43.7  0.1413  -22.0  0.3622  107.3
10.000  0.8739   61.8   0.707  -49.7  0.1451  -24.0  0.4267  102.4
!
!  f       Fmin   Gammaopt  rn/50
! GHz       dB    MAG  ANG    -
 0.900      0.55  0.41   33   0.20
 1.800      1.02  0.24   78   0.16
 2.400      1.11  0.26  103   0.15
 3.000      1.28  0.27  140   0.11
 4.000      1.50  0.34 -163   0.10
 5.000      1.85  0.40 -130   0.26
 6.000      2.56  0.50 -109   0.35
!
! (c) 2009  Infineon Technologies AG, Munich