! Infineon Technologies  Discrete & RF Semiconductors
! BFP420
!
! VCE =  2.0 V,  IC =  25 mA
! Common Emitter S-Parameters:                            Nov 2009
# GHz  S  MA  R  50
!  f         S11            S21            S12            S22
! GHz     MAG   ANG      MAG   ANG      MAG   ANG      MAG   ANG
 0.010  0.4619   -4.6  46.231  179.3  0.0012  111.0  0.9278    1.9
 0.020  0.4569   -6.9  45.345  176.3  0.0018   94.0  0.9446   -2.4
 0.050  0.4593  -16.6  44.991  170.6  0.0039   84.2  0.9458   -7.5
 0.100  0.4566  -33.0  43.814  161.4  0.0074   79.6  0.9235  -15.8
 0.150  0.4499  -48.0  41.655  152.9  0.0107   74.2  0.8835  -23.3
 0.200  0.4459  -61.6  39.143  145.2  0.0136   69.9  0.8348  -30.0
 0.250  0.4386  -74.1  36.361  138.2  0.0161   66.5  0.7834  -35.9
 0.300  0.4360  -85.2  33.817  132.2  0.0183   63.7  0.7316  -41.1
 0.350  0.4328  -94.9  31.337  126.9  0.0202   61.4  0.6827  -45.6
 0.400  0.4295 -103.4  29.051  122.1  0.0219   59.7  0.6379  -49.5
 0.450  0.4282 -110.9  26.956  117.9  0.0234   58.4  0.5966  -53.1
 0.500  0.4268 -117.8  25.060  114.2  0.0248   57.4  0.5593  -56.2
 0.600  0.4260 -129.3  21.838  107.6  0.0274   56.1  0.4960  -61.6
 0.700  0.4276 -138.7  19.231  102.3  0.0298   55.4  0.4447  -66.2
 0.800  0.4283 -146.3  17.102   97.7  0.0322   55.1  0.4028  -70.2
 0.900  0.4304 -152.9  15.366   93.7  0.0346   54.9  0.3680  -73.9
 1.000  0.4340 -158.8  13.912   90.1  0.0370   54.8  0.3381  -77.6
 1.100  0.4364 -163.7  12.683   87.0  0.0394   54.7  0.3133  -80.8
 1.200  0.4404 -168.4  11.634   84.0  0.0418   54.6  0.2911  -84.4
 1.300  0.4437 -172.4  10.739   81.3  0.0443   54.4  0.2722  -87.6
 1.400  0.4473 -176.2   9.958   78.8  0.0468   54.1  0.2557  -91.0
 1.500  0.4492 -179.6   9.283   76.4  0.0493   53.8  0.2405  -94.3
 1.600  0.4530  177.3   8.683   74.1  0.0518   53.4  0.2279  -97.6
 1.700  0.4562  173.9   8.155   72.0  0.0544   53.0  0.2159 -101.1
 1.800  0.4584  171.3   7.676   69.9  0.0569   52.5  0.2053 -104.3
 1.900  0.4619  168.3   7.246   67.9  0.0595   51.9  0.1958 -108.3
 2.000  0.4630  165.8   6.867   66.0  0.0620   51.3  0.1868 -111.4
 2.200  0.4696  160.6   6.209   62.2  0.0671   50.0  0.1719 -119.4
 2.400  0.4768  155.6   5.656   58.7  0.0720   48.5  0.1604 -128.1
 2.600  0.4882  151.0   5.189   55.1  0.0769   46.9  0.1524 -137.4
 2.800  0.4969  146.8   4.786   51.9  0.0818   45.4  0.1474 -146.7
 3.000  0.5070  143.0   4.440   48.7  0.0866   43.7  0.1452 -155.9
 3.500  0.5392  133.3   3.747   40.8  0.0980   39.2  0.1540 -178.3
 4.000  0.5691  124.8   3.223   33.2  0.1091   34.5  0.1749  164.5
 4.500  0.5911  118.0   2.806   26.0  0.1190   29.6  0.2001  152.3
 5.000  0.6036  112.6   2.477   19.6  0.1283   25.1  0.2200  142.8
 5.500  0.6191  106.8   2.222   13.3  0.1370   20.7  0.2414  134.8
 6.000  0.6397  101.3   2.020    7.1  0.1458   16.3  0.2651  127.1
 6.500  0.6612   96.0   1.851    0.5  0.1547   11.5  0.2869  120.0
 7.000  0.6776   90.8   1.711   -6.2  0.1640    6.6  0.3033  112.7
 7.500  0.6889   85.3   1.586  -13.0  0.1725    1.0  0.3249  106.2
 8.000  0.7022   79.0   1.453  -20.0  0.1774   -5.1  0.3521   99.6
 8.500  0.7206   72.3   1.317  -26.5  0.1776  -10.5  0.3862   92.2
 9.000  0.7555   66.3   1.203  -31.9  0.1775  -14.4  0.4346   86.0
 9.500  0.8078   61.8   1.119  -37.0  0.1790  -17.9  0.4925   81.8
10.000  0.8475   58.6   1.015  -42.2  0.1806  -21.7  0.5420   78.4
!
!  f       Fmin   Gammaopt  rn/50
! GHz       dB    MAG  ANG    -
 0.900      1.38  0.22 -154   0.13
 1.800      1.65  0.29 -143   0.13
 2.400      1.81  0.26 -138   0.17
 3.000      1.83  0.34 -129   0.18
 4.000      1.97  0.45 -112   0.27
 5.000      2.40  0.49  -95   0.44
 6.000      2.85  0.54  -84   0.65
!
! (c) 2009  Infineon Technologies AG, Munich