! Infineon Technologies  Discrete & RF Semiconductors
! BFP420
!
! VCE =  2.0 V,  IC =  1.5 mA
! Common Emitter S-Parameters:                            Nov 2009
# GHz  S  MA  R  50
!  f         S11            S21            S12            S22
! GHz     MAG   ANG      MAG   ANG      MAG   ANG      MAG   ANG
 0.010  0.9388   -1.3   5.510  179.4  0.0010   85.9  0.9954    0.0
 0.020  0.9440   -1.5   5.352  179.2  0.0020   86.1  0.9960   -0.7
 0.050  0.9444   -3.5   5.385  177.3  0.0052   89.5  0.9962   -2.0
 0.100  0.9425   -7.0   5.420  174.6  0.0104   86.3  0.9948   -4.1
 0.150  0.9400  -10.5   5.414  171.7  0.0156   84.0  0.9924   -6.1
 0.200  0.9408  -13.9   5.405  169.0  0.0207   82.0  0.9884   -8.1
 0.250  0.9361  -17.3   5.369  166.0  0.0259   80.0  0.9840  -10.1
 0.300  0.9327  -20.9   5.357  163.4  0.0309   77.9  0.9781  -12.1
 0.350  0.9282  -24.3   5.330  160.7  0.0360   75.8  0.9715  -14.1
 0.400  0.9237  -27.7   5.288  158.0  0.0408   73.7  0.9635  -16.0
 0.450  0.9181  -31.2   5.248  155.3  0.0457   71.7  0.9556  -17.9
 0.500  0.9122  -34.6   5.197  152.6  0.0504   69.7  0.9459  -19.9
 0.600  0.9001  -41.5   5.093  147.3  0.0594   65.7  0.9257  -23.6
 0.700  0.8852  -48.2   4.973  142.2  0.0679   61.8  0.9028  -27.2
 0.800  0.8701  -54.7   4.830  137.3  0.0758   58.0  0.8786  -30.6
 0.900  0.8546  -61.2   4.690  132.5  0.0831   54.4  0.8530  -33.8
 1.000  0.8391  -67.5   4.549  128.0  0.0900   51.0  0.8267  -37.0
 1.100  0.8240  -73.7   4.400  123.7  0.0962   47.7  0.8009  -39.9
 1.200  0.8097  -79.9   4.257  119.3  0.1019   44.5  0.7740  -42.9
 1.300  0.7949  -85.7   4.114  115.3  0.1070   41.5  0.7485  -45.6
 1.400  0.7804  -91.6   3.975  111.3  0.1116   38.5  0.7228  -48.2
 1.500  0.7681  -97.1   3.843  107.7  0.1159   35.7  0.6978  -50.7
 1.600  0.7559 -102.7   3.715  103.8  0.1193   33.0  0.6736  -53.0
 1.700  0.7432 -108.0   3.591  100.4  0.1228   30.5  0.6507  -55.3
 1.800  0.7325 -113.1   3.460   96.9  0.1256   28.0  0.6288  -57.4
 1.900  0.7223 -118.4   3.350   93.6  0.1283   25.6  0.6061  -59.6
 2.000  0.7115 -123.2   3.237   90.5  0.1304   23.4  0.5862  -61.4
 2.200  0.6930 -133.0   3.034   84.4  0.1342   19.1  0.5463  -65.2
 2.400  0.6788 -142.3   2.845   78.5  0.1369   15.0  0.5089  -69.0
 2.600  0.6689 -151.6   2.674   72.9  0.1383   11.1  0.4744  -72.6
 2.800  0.6610 -160.0   2.511   67.7  0.1391    7.8  0.4432  -75.9
 3.000  0.6571 -168.1   2.371   62.8  0.1391    4.6  0.4148  -79.2
 3.500  0.6590  173.1   2.066   50.8  0.1373   -2.3  0.3530  -88.2
 4.000  0.6714  157.3   1.818   39.8  0.1341   -7.6  0.3063  -98.0
 4.500  0.6842  144.5   1.600   29.5  0.1297  -12.1  0.2740 -109.0
 5.000  0.6901  134.5   1.417   20.6  0.1245  -15.1  0.2519 -119.7
 5.500  0.6983  125.4   1.272   12.5  0.1193  -17.0  0.2359 -130.9
 6.000  0.7135  116.9   1.160    4.7  0.1155  -17.6  0.2267 -143.3
 6.500  0.7324  109.4   1.070   -3.2  0.1145  -17.7  0.2239 -155.9
 7.000  0.7476  102.5   0.991  -11.0  0.1160  -17.7  0.2236 -168.6
 7.500  0.7587   95.2   0.921  -18.7  0.1192  -18.4  0.2299  177.7
 8.000  0.7663   87.2   0.845  -26.6  0.1219  -20.3  0.2417  163.4
 8.500  0.7746   79.1   0.767  -33.8  0.1225  -22.1  0.2577  147.5
 9.000  0.8015   72.0   0.704  -40.1  0.1232  -22.9  0.2949  132.1
 9.500  0.8508   66.7   0.650  -45.9  0.1258  -23.3  0.3569  121.2
10.000  0.8892   62.8   0.586  -52.0  0.1306  -24.2  0.4269  114.2
!
!  f       Fmin   Gammaopt  rn/50
! GHz       dB    MAG  ANG    -
 0.900      0.52  0.55   33   0.27
 1.800      1.07  0.35   77   0.21
 2.400      1.18  0.36  101   0.18
 3.000      1.41  0.36  134   0.13
 4.000      1.68  0.40 -172   0.10
 5.000      2.08  0.44 -130   0.32
 6.000      2.89  0.57 -114   0.39
!
! (c) 2009  Infineon Technologies AG, Munich