! Infineon Technologies  Discrete & RF Semiconductors
! BFP420
!
! VCE =  3.0 V,  IC =  8.0 mA
! Common Emitter S-Parameters:                            Nov 2009
# GHz  S  MA  R  50
!  f         S11            S21            S12            S22
! GHz     MAG   ANG      MAG   ANG      MAG   ANG      MAG   ANG
 0.010  0.7496   -1.7  23.249  179.0  0.0007   60.7  0.9755    0.6
 0.020  0.7566   -3.0  22.614  177.7  0.0018   79.4  0.9801   -1.6
 0.050  0.7518   -7.5  22.564  174.3  0.0042   80.0  0.9794   -4.1
 0.100  0.7508  -15.3  22.463  169.1  0.0085   80.8  0.9724   -8.5
 0.150  0.7414  -22.8  22.115  163.8  0.0125   78.2  0.9597  -12.8
 0.200  0.7337  -30.1  21.667  158.7  0.0164   75.1  0.9424  -16.8
 0.250  0.7192  -37.2  21.059  153.6  0.0201   71.9  0.9216  -20.7
 0.300  0.7055  -44.2  20.515  149.0  0.0235   69.0  0.8973  -24.5
 0.350  0.6915  -51.0  19.859  144.6  0.0267   66.2  0.8711  -28.0
 0.400  0.6768  -57.3  19.167  140.3  0.0296   63.5  0.8436  -31.4
 0.450  0.6606  -63.5  18.469  136.2  0.0324   61.2  0.8158  -34.4
 0.500  0.6456  -69.5  17.753  132.3  0.0348   58.9  0.7873  -37.4
 0.600  0.6172  -80.7  16.385  125.2  0.0391   54.9  0.7323  -42.8
 0.700  0.5920  -91.0  15.085  119.0  0.0427   51.8  0.6803  -47.4
 0.800  0.5706 -100.2  13.876  113.4  0.0458   49.1  0.6329  -51.5
 0.900  0.5527 -108.8  12.811  108.4  0.0484   46.9  0.5898  -55.2
 1.000  0.5387 -116.7  11.857  103.9  0.0508   45.2  0.5505  -58.6
 1.100  0.5272 -123.8  10.994   99.8  0.0530   43.8  0.5158  -61.6
 1.200  0.5186 -130.5  10.227   96.0  0.0550   42.5  0.4832  -64.6
 1.300  0.5110 -136.6   9.547   92.5  0.0570   41.5  0.4549  -67.2
 1.400  0.5057 -142.4   8.936   89.2  0.0588   40.5  0.4287  -69.8
 1.500  0.5012 -147.6   8.399   86.3  0.0606   39.7  0.4046  -72.3
 1.600  0.4986 -152.5   7.904   83.4  0.0623   39.0  0.3832  -74.6
 1.700  0.4954 -157.4   7.467   80.7  0.0641   38.4  0.3629  -76.9
 1.800  0.4928 -161.6   7.056   78.1  0.0659   37.7  0.3449  -79.0
 1.900  0.4928 -166.0   6.692   75.6  0.0675   37.1  0.3270  -81.5
 2.000  0.4905 -169.8   6.363   73.3  0.0693   36.6  0.3115  -83.4
 2.200  0.4901 -177.7   5.784   68.7  0.0727   35.5  0.2815  -88.1
 2.400  0.4924  175.4   5.292   64.5  0.0760   34.4  0.2547  -93.0
 2.600  0.4994  168.8   4.872   60.5  0.0793   33.3  0.2310  -98.3
 2.800  0.5057  162.9   4.505   56.7  0.0826   32.3  0.2099 -103.8
 3.000  0.5135  157.5   4.188   53.0  0.0860   31.2  0.1916 -109.6
 3.500  0.5409  144.7   3.549   44.1  0.0942   28.3  0.1568 -128.3
 4.000  0.5690  133.9   3.062   35.7  0.1025   25.1  0.1409 -149.7
 4.500  0.5906  125.4   2.668   27.8  0.1103   21.7  0.1427 -170.0
 5.000  0.6038  118.7   2.355   20.9  0.1176   18.4  0.1499  174.0
 5.500  0.6182  112.1   2.113   14.2  0.1246   15.1  0.1625  160.2
 6.000  0.6384  105.7   1.920    7.5  0.1318   11.8  0.1793  148.0
 6.500  0.6598  100.0   1.762    0.7  0.1398    8.0  0.1970  137.8
 7.000  0.6763   94.3   1.630   -6.3  0.1483    4.1  0.2114  128.3
 7.500  0.6882   88.3   1.512  -13.3  0.1566   -0.7  0.2329  119.9
 8.000  0.7018   81.6   1.386  -20.6  0.1620   -6.2  0.2607  111.4
 8.500  0.7187   74.4   1.259  -27.3  0.1630  -11.1  0.2958  101.9
 9.000  0.7532   68.2   1.154  -33.1  0.1636  -14.7  0.3456   94.1
 9.500  0.8062   63.5   1.072  -38.5  0.1653  -17.9  0.4058   89.2
10.000  0.8469   60.1   0.973  -44.1  0.1678  -21.2  0.4599   85.8
!
!  f       Fmin   Gammaopt  rn/50
! GHz       dB    MAG  ANG    -
 0.900      0.79  0.08   30   0.13
 1.800      1.14  0.06  171   0.12
 2.400      1.24  0.10  160   0.13
 3.000      1.32  0.17 -165   0.12
 4.000      1.46  0.32 -132   0.14
 5.000      1.85  0.39 -110   0.25
 6.000      2.30  0.46  -95   0.37
!
! (c) 2009  Infineon Technologies AG, Munich