! Infineon Technologies  Discrete & RF Semiconductors
! BFP420
!
! VCE =  3.0 V,  IC =  2.0 mA
! Common Emitter S-Parameters:                            Nov 2009
# GHz  S  MA  R  50
!  f         S11            S21            S12            S22
! GHz     MAG   ANG      MAG   ANG      MAG   ANG      MAG   ANG
 0.010  0.9409   -1.4   7.183  179.2  0.0007   71.6  0.9945    0.1
 0.020  0.9275   -1.6   6.990  179.0  0.0018   82.2  0.9948   -0.8
 0.050  0.9267   -3.7   7.024  177.0  0.0047   86.4  0.9949   -2.0
 0.100  0.9276   -7.4   7.061  174.2  0.0094   85.6  0.9940   -4.2
 0.150  0.9261  -11.3   7.048  171.2  0.0141   83.4  0.9907   -6.3
 0.200  0.9242  -15.0   7.031  168.3  0.0188   81.2  0.9866   -8.4
 0.250  0.9187  -18.8   6.972  165.2  0.0234   79.2  0.9819  -10.4
 0.300  0.9140  -22.7   6.954  162.4  0.0279   77.1  0.9753  -12.5
 0.350  0.9091  -26.3   6.905  159.6  0.0324   75.0  0.9680  -14.6
 0.400  0.9039  -30.0   6.840  156.7  0.0368   72.9  0.9593  -16.6
 0.450  0.8974  -33.7   6.777  153.9  0.0411   70.8  0.9506  -18.5
 0.500  0.8898  -37.5   6.701  151.0  0.0453   68.8  0.9401  -20.5
 0.600  0.8745  -44.7   6.540  145.6  0.0532   64.8  0.9181  -24.3
 0.700  0.8582  -51.9   6.361  140.3  0.0605   60.9  0.8933  -27.9
 0.800  0.8404  -58.8   6.150  135.2  0.0674   57.2  0.8672  -31.4
 0.900  0.8225  -65.6   5.945  130.3  0.0735   53.6  0.8400  -34.7
 1.000  0.8047  -72.3   5.740  125.7  0.0793   50.3  0.8121  -37.8
 1.100  0.7881  -78.7   5.527  121.3  0.0843   47.1  0.7847  -40.8
 1.200  0.7713  -85.0   5.320  116.9  0.0890   44.0  0.7564  -43.7
 1.300  0.7562  -91.1   5.120  112.9  0.0932   41.2  0.7300  -46.4
 1.400  0.7408  -97.1   4.926  108.9  0.0969   38.4  0.7034  -49.0
 1.500  0.7278 -102.7   4.742  105.3  0.1003   35.9  0.6776  -51.4
 1.600  0.7154 -108.4   4.565  101.5  0.1031   33.4  0.6529  -53.6
 1.700  0.7020 -113.8   4.397   98.2  0.1058   31.0  0.6293  -55.8
 1.800  0.6917 -118.9   4.221   94.8  0.1080   28.8  0.6069  -57.8
 1.900  0.6807 -124.2   4.073   91.5  0.1102   26.7  0.5842  -60.0
 2.000  0.6713 -128.9   3.924   88.5  0.1119   24.7  0.5641  -61.7
 2.200  0.6542 -138.6   3.656   82.5  0.1148   21.0  0.5239  -65.4
 2.400  0.6402 -147.9   3.409   76.9  0.1170   17.4  0.4865  -69.0
 2.600  0.6323 -156.9   3.189   71.6  0.1183   14.2  0.4521  -72.4
 2.800  0.6256 -165.2   2.985   66.7  0.1190   11.4  0.4210  -75.7
 3.000  0.6237 -173.1   2.807   61.9  0.1194    8.8  0.3927  -78.8
 3.500  0.6296  168.8   2.430   50.5  0.1189    3.3  0.3308  -87.5
 4.000  0.6446  153.6   2.127   40.0  0.1180   -0.8  0.2838  -97.2
 4.500  0.6588  141.5   1.868   30.3  0.1164   -4.2  0.2505 -108.1
 5.000  0.6670  132.0   1.651   21.8  0.1145   -6.4  0.2271 -118.8
 5.500  0.6763  123.3   1.482   13.9  0.1128   -7.9  0.2099 -130.3
 6.000  0.6931  115.2   1.350    6.3  0.1123   -8.5  0.1991 -143.1
 6.500  0.7130  108.0   1.243   -1.3  0.1144   -9.0  0.1944 -156.3
 7.000  0.7280  101.2   1.151   -9.0  0.1183   -9.8  0.1925 -169.4
 7.500  0.7390   94.2   1.069  -16.6  0.1236  -11.4  0.1977  176.4
 8.000  0.7488   86.5   0.981  -24.4  0.1278  -14.3  0.2092  161.3
 8.500  0.7591   78.5   0.892  -31.6  0.1293  -17.1  0.2261  144.5
 9.000  0.7881   71.6   0.819  -37.9  0.1304  -18.8  0.2647  128.6
 9.500  0.8386   66.3   0.758  -43.8  0.1330  -20.0  0.3263  118.0
10.000  0.8780   62.5   0.685  -50.0  0.1375  -21.6  0.3938  111.6
!
!  f       Fmin   Gammaopt  rn/50
! GHz       dB    MAG  ANG    -
 0.900      0.53  0.47   33   0.22
 1.800      1.03  0.29   77   0.17
 2.400      1.13  0.31  102   0.16
 3.000      1.32  0.31  136   0.12
 4.000      1.57  0.37 -168   0.10
 5.000      1.96  0.42 -129   0.28
 6.000      2.72  0.51 -111   0.37
!
! (c) 2009  Infineon Technologies AG, Munich