! Infineon Technologies  Discrete & RF Semiconductors
! BFP420
!
! VCE =  3.0 V,  IC =  5.0 mA
! Common Emitter S-Parameters:                            Nov 2009
# GHz  S  MA  R  50
!  f         S11            S21            S12            S22
! GHz     MAG   ANG      MAG   ANG      MAG   ANG      MAG   ANG
 0.010  0.8454   -2.4  15.923  179.1  0.0005   50.0  0.9860    0.3
 0.020  0.8378   -2.3  15.546  178.3  0.0019   81.9  0.9876   -1.3
 0.050  0.8345   -5.8  15.563  175.5  0.0043   82.8  0.9871   -3.2
 0.100  0.8331  -11.6  15.569  171.3  0.0090   82.6  0.9834   -6.6
 0.150  0.8271  -17.4  15.436  167.1  0.0132   80.3  0.9759   -9.9
 0.200  0.8224  -23.2  15.264  162.9  0.0176   77.4  0.9655  -13.1
 0.250  0.8116  -28.8  14.990  158.7  0.0217   74.9  0.9529  -16.3
 0.300  0.8019  -34.4  14.771  154.7  0.0256   72.2  0.9375  -19.4
 0.350  0.7900  -40.0  14.482  150.9  0.0294   69.5  0.9203  -22.4
 0.400  0.7796  -45.2  14.151  147.1  0.0329   66.9  0.9009  -25.2
 0.450  0.7648  -50.5  13.817  143.5  0.0363   64.5  0.8815  -28.0
 0.500  0.7512  -55.7  13.450  139.9  0.0394   62.3  0.8602  -30.6
 0.600  0.7241  -65.6  12.721  133.1  0.0451   57.8  0.8171  -35.7
 0.700  0.6978  -74.8  11.974  127.0  0.0500   54.0  0.7733  -40.2
 0.800  0.6734  -83.4  11.225  121.4  0.0542   50.6  0.7310  -44.3
 0.900  0.6509  -91.7  10.538  116.1  0.0578   47.6  0.6903  -48.0
 1.000  0.6318  -99.5   9.896  111.4  0.0610   45.0  0.6516  -51.5
 1.100  0.6149 -106.6   9.289  107.0  0.0638   42.7  0.6165  -54.6
 1.200  0.5998 -113.6   8.732  102.8  0.0662   40.6  0.5823  -57.7
 1.300  0.5870 -119.9   8.223   99.1  0.0685   38.8  0.5519  -60.4
 1.400  0.5768 -126.1   7.758   95.4  0.0704   37.1  0.5230  -63.1
 1.500  0.5668 -131.8   7.338   92.2  0.0723   35.6  0.4962  -65.5
 1.600  0.5603 -137.2   6.945   88.9  0.0739   34.3  0.4717  -67.8
 1.700  0.5526 -142.4   6.595   86.0  0.0756   33.1  0.4486  -70.0
 1.800  0.5477 -147.1   6.255   83.1  0.0771   32.0  0.4277  -72.0
 1.900  0.5429 -152.1   5.957   80.4  0.0785   30.9  0.4069  -74.3
 2.000  0.5371 -156.3   5.682   77.8  0.0799   30.0  0.3888  -76.1
 2.200  0.5311 -165.0   5.194   72.7  0.0826   28.2  0.3538  -80.2
 2.400  0.5297 -173.1   4.772   68.1  0.0851   26.6  0.3218  -84.4
 2.600  0.5320  179.2   4.407   63.6  0.0873   25.2  0.2931  -88.7
 2.800  0.5343  172.5   4.086   59.5  0.0895   24.0  0.2676  -93.0
 3.000  0.5401  166.2   3.808   55.5  0.0918   22.8  0.2447  -97.4
 3.500  0.5623  151.8   3.241   45.9  0.0972   20.0  0.1969 -111.2
 4.000  0.5867  139.5   2.804   36.9  0.1031   17.4  0.1657 -127.8
 4.500  0.6069  130.0   2.447   28.5  0.1085   14.5  0.1515 -146.2
 5.000  0.6190  122.5   2.159   21.2  0.1140   12.0  0.1466 -162.5
 5.500  0.6324  115.2   1.937   14.1  0.1191    9.5  0.1496 -178.5
 6.000  0.6522  108.3   1.762    7.2  0.1249    7.1  0.1583  166.7
 6.500  0.6731  102.2   1.617    0.2  0.1317    4.2  0.1707  154.1
 7.000  0.6894   96.2   1.497   -7.1  0.1395    1.0  0.1821  142.9
 7.500  0.7012   90.0   1.389  -14.2  0.1473   -3.1  0.2014  132.5
 8.000  0.7136   83.0   1.274  -21.7  0.1527   -8.1  0.2276  122.0
 8.500  0.7289   75.6   1.158  -28.5  0.1540  -12.6  0.2605  110.7
 9.000  0.7618   69.1   1.061  -34.5  0.1548  -15.8  0.3097  101.2
 9.500  0.8144   64.3   0.986  -40.1  0.1567  -18.5  0.3710   95.4
10.000  0.8540   60.8   0.893  -45.9  0.1596  -21.5  0.4286   91.7
!
!  f       Fmin   Gammaopt  rn/50
! GHz       dB    MAG  ANG    -
 0.900      0.66  0.21   31   0.15
 1.800      1.05  0.09   93   0.13
 2.400      1.14  0.14  119   0.13
 3.000      1.24  0.17  165   0.11
 4.000      1.41  0.31 -145   0.12
 5.000      1.85  0.38 -119   0.21
 6.000      2.30  0.45 -101   0.36
!
! (c) 2009  Infineon Technologies AG, Munich