! Infineon Technologies  Discrete & RF Semiconductors
! BFP420
!
! VCE =  3.0 V,  IC =  6.0 mA
! Common Emitter S-Parameters:                            Nov 2009
# GHz  S  MA  R  50
!  f         S11            S21            S12            S22
! GHz     MAG   ANG      MAG   ANG      MAG   ANG      MAG   ANG
 0.010  0.7988   -2.4  18.522  179.2  0.0004   93.5  0.9820    0.3
 0.020  0.8087   -2.6  18.061  178.0  0.0018   78.5  0.9853   -1.4
 0.050  0.8069   -6.1  18.056  175.0  0.0041   82.7  0.9842   -3.6
 0.100  0.8046  -13.0  18.037  170.5  0.0088   82.4  0.9797   -7.3
 0.150  0.7995  -19.2  17.838  165.9  0.0131   79.5  0.9706  -10.9
 0.200  0.7904  -25.5  17.592  161.4  0.0171   76.6  0.9577  -14.5
 0.250  0.7789  -31.8  17.214  156.8  0.0211   73.7  0.9425  -17.9
 0.300  0.7674  -37.9  16.892  152.6  0.0249   71.0  0.9238  -21.3
 0.350  0.7551  -43.9  16.493  148.6  0.0284   68.2  0.9033  -24.5
 0.400  0.7415  -49.5  16.043  144.6  0.0318   65.5  0.8812  -27.5
 0.450  0.7269  -55.2  15.590  140.7  0.0349   63.1  0.8585  -30.5
 0.500  0.7121  -60.6  15.106  137.0  0.0378   60.8  0.8343  -33.2
 0.600  0.6837  -71.1  14.160  130.1  0.0429   56.6  0.7863  -38.4
 0.700  0.6570  -80.8  13.213  123.9  0.0472   52.9  0.7386  -43.0
 0.800  0.6328  -89.7  12.300  118.2  0.0509   49.8  0.6939  -47.1
 0.900  0.6120  -98.1  11.468  113.1  0.0541   47.0  0.6517  -50.9
 1.000  0.5939 -106.0  10.701  108.4  0.0569   44.7  0.6124  -54.4
 1.100  0.5788 -113.2   9.995  104.1  0.0594   42.7  0.5768  -57.4
 1.200  0.5659 -120.1   9.357  100.0  0.0616   40.9  0.5431  -60.5
 1.300  0.5551 -126.4   8.779   96.4  0.0637   39.4  0.5130  -63.2
 1.400  0.5465 -132.5   8.252   92.9  0.0655   38.1  0.4849  -65.8
 1.500  0.5386 -138.0   7.786   89.8  0.0674   36.9  0.4591  -68.2
 1.600  0.5339 -143.2   7.351   86.6  0.0690   35.8  0.4357  -70.5
 1.700  0.5278 -148.4   6.964   83.8  0.0706   34.8  0.4135  -72.8
 1.800  0.5239 -152.9   6.594   81.0  0.0722   34.0  0.3936  -74.8
 1.900  0.5211 -157.7   6.267   78.4  0.0737   33.1  0.3738  -77.2
 2.000  0.5170 -161.7   5.969   75.9  0.0752   32.4  0.3568  -79.0
 2.200  0.5133 -170.1   5.445   71.1  0.0781   31.0  0.3236  -83.3
 2.400  0.5130 -177.9   4.992   66.6  0.0809   29.6  0.2937  -87.8
 2.600  0.5186  174.9   4.604   62.2  0.0836   28.3  0.2668  -92.4
 2.800  0.5220  168.5   4.262   58.3  0.0862   27.3  0.2428  -97.1
 3.000  0.5279  162.6   3.968   54.5  0.0890   26.1  0.2218 -102.0
 3.500  0.5526  148.8   3.371   45.1  0.0956   23.4  0.1785 -117.5
 4.000  0.5792  137.2   2.913   36.4  0.1025   20.6  0.1529 -136.2
 4.500  0.5997  128.0   2.540   28.2  0.1090   17.6  0.1449 -155.9
 5.000  0.6121  120.9   2.241   21.0  0.1153   14.8  0.1451 -172.5
 5.500  0.6266  113.9   2.011   14.1  0.1213   11.9  0.1524  172.1
 6.000  0.6457  107.2   1.829    7.3  0.1277    9.1  0.1649  158.2
 6.500  0.6675  101.3   1.679    0.4  0.1351    5.9  0.1799  146.7
 7.000  0.6838   95.4   1.552   -6.7  0.1432    2.4  0.1927  136.2
 7.500  0.6952   89.3   1.441  -13.8  0.1512   -2.1  0.2131  126.7
 8.000  0.7086   82.4   1.322  -21.2  0.1566   -7.3  0.2403  117.2
 8.500  0.7250   75.1   1.200  -28.0  0.1578  -12.0  0.2744  106.7
 9.000  0.7581   68.7   1.100  -33.9  0.1585  -15.3  0.3239   97.9
 9.500  0.8104   63.9   1.023  -39.5  0.1604  -18.3  0.3848   92.6
10.000  0.8511   60.5   0.927  -45.2  0.1631  -21.4  0.4408   89.1
!
!  f       Fmin   Gammaopt  rn/50
! GHz       dB    MAG  ANG    -
 0.900      0.70  0.16   29   0.14
 1.800      1.08  0.06  113   0.12
 2.400      1.17  0.11  132   0.13
 3.000      1.26  0.17  176   0.11
 4.000      1.43  0.31 -139   0.13
 5.000      1.82  0.38 -115   0.24
 6.000      2.30  0.43  -99   0.37
!
! (c) 2009  Infineon Technologies AG, Munich