! Infineon Technologies  Discrete & RF Semiconductors
! BFP420
!
! VCE =  3.0 V,  IC =  25 mA
! Common Emitter S-Parameters:                            Nov 2009
# GHz  S  MA  R  50
!  f         S11            S21            S12            S22
! GHz     MAG   ANG      MAG   ANG      MAG   ANG      MAG   ANG
 0.010  0.4615   -3.2  46.451  178.9  0.0011  122.8  0.9291    2.0
 0.020  0.4593   -6.1  45.348  176.1  0.0016   83.4  0.9471   -2.1
 0.050  0.4597  -14.6  44.849  170.7  0.0036   84.8  0.9486   -6.7
 0.100  0.4587  -30.5  43.708  162.0  0.0069   78.8  0.9285  -14.2
 0.150  0.4531  -44.7  41.692  153.8  0.0099   74.2  0.8921  -21.1
 0.200  0.4476  -57.7  39.355  146.5  0.0127   70.4  0.8473  -27.2
 0.250  0.4382  -69.7  36.728  139.6  0.0150   67.1  0.7993  -32.6
 0.300  0.4329  -80.5  34.317  133.7  0.0171   64.7  0.7505  -37.3
 0.350  0.4273  -90.1  31.929  128.5  0.0189   62.6  0.7037  -41.4
 0.400  0.4228  -98.6  29.701  123.7  0.0206   60.9  0.6606  -45.0
 0.450  0.4193 -106.3  27.643  119.5  0.0220   59.5  0.6205  -48.1
 0.500  0.4169 -113.3  25.766  115.7  0.0235   58.5  0.5840  -50.9
 0.600  0.4143 -125.0  22.557  109.1  0.0260   57.1  0.5214  -55.7
 0.700  0.4136 -134.7  19.929  103.7  0.0284   56.4  0.4702  -59.6
 0.800  0.4128 -142.7  17.766   99.0  0.0306   56.1  0.4281  -63.0
 0.900  0.4146 -149.6  15.989   94.9  0.0330   55.9  0.3928  -66.0
 1.000  0.4170 -155.7  14.498   91.3  0.0352   55.7  0.3622  -69.0
 1.100  0.4199 -160.9  13.232   88.1  0.0376   55.7  0.3367  -71.6
 1.200  0.4229 -165.7  12.153   85.0  0.0399   55.5  0.3134  -74.5
 1.300  0.4262 -169.9  11.223   82.3  0.0423   55.3  0.2937  -77.1
 1.400  0.4289 -173.9  10.417   79.7  0.0447   55.1  0.2759  -79.8
 1.500  0.4313 -177.4   9.716   77.4  0.0471   54.7  0.2596  -82.4
 1.600  0.4352  179.4   9.089   75.0  0.0495   54.4  0.2456  -85.0
 1.700  0.4382  175.9   8.540   72.9  0.0520   53.9  0.2321  -87.8
 1.800  0.4396  173.0   8.037   70.7  0.0545   53.5  0.2203  -90.3
 1.900  0.4442  170.0   7.591   68.8  0.0569   52.9  0.2088  -93.6
 2.000  0.4450  167.5   7.197   66.8  0.0594   52.4  0.1985  -95.9
 2.200  0.4517  162.0   6.505   63.0  0.0643   51.0  0.1796 -102.4
 2.400  0.4593  157.0   5.929   59.4  0.0691   49.6  0.1632 -109.6
 2.600  0.4701  152.3   5.440   55.9  0.0739   48.1  0.1497 -117.8
 2.800  0.4790  147.9   5.018   52.7  0.0786   46.5  0.1389 -126.6
 3.000  0.4898  143.9   4.657   49.5  0.0833   44.9  0.1310 -135.8
 3.500  0.5214  134.2   3.931   41.6  0.0945   40.4  0.1261 -161.7
 4.000  0.5522  125.5   3.384   34.0  0.1054   35.8  0.1389  176.3
 4.500  0.5754  118.7   2.947   26.7  0.1153   30.9  0.1611  160.6
 5.000  0.5896  113.2   2.603   20.4  0.1245   26.5  0.1801  149.2
 5.500  0.6055  107.4   2.335   14.1  0.1331   22.1  0.2010  139.7
 6.000  0.6260  101.8   2.123    7.8  0.1418   17.7  0.2242  131.0
 6.500  0.6485   96.6   1.946    1.2  0.1507   13.0  0.2459  123.2
 7.000  0.6652   91.4   1.799   -5.4  0.1599    8.1  0.2623  115.3
 7.500  0.6769   85.9   1.668  -12.2  0.1685    2.6  0.2842  108.5
 8.000  0.6912   79.5   1.529  -19.3  0.1738   -3.5  0.3125  101.6
 8.500  0.7104   72.7   1.387  -25.7  0.1743   -8.9  0.3483   93.9
 9.000  0.7465   66.7   1.269  -31.2  0.1746  -12.8  0.3983   87.4
 9.500  0.7996   62.3   1.181  -36.4  0.1762  -16.4  0.4574   83.1
10.000  0.8413   59.0   1.070  -41.7  0.1781  -20.1  0.5084   79.7
!
!  f       Fmin   Gammaopt  rn/50
! GHz       dB    MAG  ANG    -
 0.900      1.38  0.22 -154   0.13
 1.800      1.65  0.29 -143   0.13
 2.400      1.81  0.26 -138   0.17
 3.000      1.83  0.34 -129   0.18
 4.000      1.97  0.45 -112   0.27
 5.000      2.40  0.49  -95   0.44
 6.000      2.85  0.54  -84   0.65
!
! (c) 2009  Infineon Technologies AG, Munich