! Infineon Technologies  Discrete & RF Semiconductors
! BFP420
!
! VCE =  3.5 V,  IC =  1.2 mA
! Common Emitter S-Parameters:                            Nov 2009
# GHz  S  MA  R  50
!  f         S11            S21            S12            S22
! GHz     MAG   ANG      MAG   ANG      MAG   ANG      MAG   ANG
 0.010  0.9681   -1.2   4.500  179.2  0.0011   94.5  0.9966    0.0
 0.020  0.9569   -1.2   4.358  179.3  0.0019   80.8  0.9965   -0.6
 0.050  0.9557   -3.0   4.389  177.5  0.0045   86.4  0.9967   -1.6
 0.100  0.9568   -6.3   4.414  175.1  0.0094   85.6  0.9962   -3.3
 0.150  0.9558   -9.3   4.415  172.6  0.0139   83.8  0.9942   -5.0
 0.200  0.9562  -12.3   4.410  170.1  0.0185   82.5  0.9915   -6.7
 0.250  0.9525  -15.5   4.388  167.4  0.0231   80.8  0.9884   -8.3
 0.300  0.9496  -18.7   4.386  165.1  0.0277   78.9  0.9842  -10.0
 0.350  0.9464  -21.7   4.371  162.6  0.0323   77.1  0.9795  -11.6
 0.400  0.9429  -24.9   4.348  160.2  0.0367   75.2  0.9741  -13.2
 0.450  0.9386  -28.0   4.324  157.7  0.0412   73.4  0.9682  -14.8
 0.500  0.9337  -31.0   4.296  155.2  0.0456   71.6  0.9611  -16.4
 0.600  0.9242  -37.3   4.232  150.3  0.0540   68.0  0.9464  -19.6
 0.700  0.9121  -43.4   4.161  145.6  0.0621   64.4  0.9294  -22.6
 0.800  0.8997  -49.4   4.067  140.9  0.0697   61.0  0.9108  -25.5
 0.900  0.8867  -55.4   3.977  136.4  0.0769   57.5  0.8911  -28.4
 1.000  0.8732  -61.3   3.884  132.1  0.0838   54.2  0.8707  -31.2
 1.100  0.8601  -67.1   3.782  127.9  0.0900   51.1  0.8495  -33.7
 1.200  0.8461  -72.9   3.683  123.6  0.0960   47.9  0.8274  -36.4
 1.300  0.8333  -78.5   3.580  119.7  0.1014   45.0  0.8063  -38.8
 1.400  0.8202  -84.2   3.484  115.8  0.1064   41.9  0.7845  -41.2
 1.500  0.8075  -89.4   3.386  112.1  0.1110   39.2  0.7628  -43.5
 1.600  0.7959  -94.8   3.291  108.3  0.1150   36.3  0.7412  -45.6
 1.700  0.7828 -100.1   3.198  104.8  0.1189   33.7  0.7207  -47.7
 1.800  0.7715 -105.0   3.096  101.3  0.1221   31.1  0.7006  -49.7
 1.900  0.7609 -110.3   3.014   98.0  0.1252   28.6  0.6800  -51.7
 2.000  0.7496 -114.9   2.922   94.8  0.1278   26.3  0.6614  -53.4
 2.200  0.7301 -124.7   2.761   88.4  0.1323   21.7  0.6233  -57.0
 2.400  0.7125 -134.2   2.606   82.4  0.1357   17.2  0.5876  -60.4
 2.600  0.7013 -143.6   2.463   76.6  0.1378   13.1  0.5536  -63.6
 2.800  0.6884 -152.2   2.325   71.2  0.1389    9.4  0.5225  -66.6
 3.000  0.6821 -160.5   2.205   66.0  0.1392    5.7  0.4941  -69.6
 3.500  0.6778  179.6   1.938   53.6  0.1375   -2.0  0.4307  -77.2
 4.000  0.6861  162.8   1.715   42.1  0.1338   -8.1  0.3815  -85.4
 4.500  0.6963  149.2   1.515   31.4  0.1284  -13.3  0.3447  -94.5
 5.000  0.7010  138.4   1.343   22.2  0.1219  -16.9  0.3173 -103.5
 5.500  0.7076  128.7   1.208   13.8  0.1149  -19.2  0.2943 -112.9
 6.000  0.7217  119.7   1.102    5.7  0.1091  -19.7  0.2775 -123.3
 6.500  0.7400  111.8   1.017   -2.3  0.1064  -19.4  0.2668 -134.3
 7.000  0.7550  104.5   0.943  -10.2  0.1063  -18.5  0.2585 -145.7
 7.500  0.7656   97.0   0.875  -17.9  0.1085  -18.3  0.2543 -158.9
 8.000  0.7728   88.8   0.804  -25.9  0.1109  -19.1  0.2541 -173.8
 8.500  0.7796   80.4   0.731  -33.1  0.1119  -20.1  0.2557  169.2
 9.000  0.8058   73.2   0.672  -39.6  0.1133  -20.2  0.2781  150.7
 9.500  0.8556   67.7   0.620  -45.6  0.1165  -20.0  0.3323  136.1
10.000  0.8938   63.6   0.559  -51.8  0.1224  -20.4  0.4022  126.5
!
!  f       Fmin   Gammaopt  rn/50
! GHz       dB    MAG  ANG    -
 0.900      0.53  0.62   33   0.31
 1.800      1.10  0.40   77   0.24
 2.400      1.23  0.41  100   0.20
 3.000      1.51  0.41  132   0.14
 4.000      1.80  0.44 -175   0.09
 5.000      2.23  0.45 -132   0.38
 6.000      3.18  0.57 -116   0.44
!
! (c) 2009  Infineon Technologies AG, Munich