! Infineon Technologies  Discrete & RF Semiconductors
! BFP420
!
! VCE =  3.0 V,  IC =  12 mA
! Common Emitter S-Parameters:                            Nov 2009
# GHz  S  MA  R  50
!  f         S11            S21            S12            S22
! GHz     MAG   ANG      MAG   ANG      MAG   ANG      MAG   ANG
 0.010  0.6551   -3.0  30.927  179.0  0.0005   93.3  0.9632    0.9
 0.020  0.6653   -3.7  30.142  177.1  0.0016   87.3  0.9699   -1.9
 0.050  0.6616   -9.5  29.977  173.0  0.0040   81.7  0.9700   -5.1
 0.100  0.6589  -19.3  29.659  166.7  0.0079   79.9  0.9592  -10.5
 0.150  0.6491  -28.7  28.922  160.4  0.0117   76.4  0.9395  -15.7
 0.200  0.6383  -37.8  28.036  154.5  0.0152   72.9  0.9135  -20.5
 0.250  0.6219  -46.5  26.910  148.7  0.0184   69.7  0.8836  -25.0
 0.300  0.6076  -54.9  25.857  143.4  0.0213   66.5  0.8501  -29.3
 0.350  0.5921  -62.8  24.698  138.6  0.0240   63.8  0.8155  -33.2
 0.400  0.5784  -70.0  23.523  134.0  0.0263   61.3  0.7806  -36.8
 0.450  0.5629  -77.1  22.375  129.7  0.0285   59.2  0.7463  -40.1
 0.500  0.5501  -83.8  21.246  125.8  0.0304   57.2  0.7128  -43.1
 0.600  0.5267  -95.8  19.186  118.6  0.0338   54.1  0.6513  -48.4
 0.700  0.5087 -106.5  17.348  112.6  0.0366   51.8  0.5964  -53.0
 0.800  0.4945 -115.7  15.731  107.3  0.0391   50.1  0.5488  -56.9
 0.900  0.4836 -124.1  14.357  102.6  0.0414   48.7  0.5071  -60.4
 1.000  0.4764 -131.7  13.155   98.4  0.0436   47.7  0.4699  -63.7
 1.100  0.4705 -138.4  12.103   94.7  0.0457   47.0  0.4383  -66.5
 1.200  0.4674 -144.6  11.191   91.1  0.0477   46.3  0.4088  -69.4
 1.300  0.4651 -150.2  10.390   88.0  0.0497   45.9  0.3835  -72.0
 1.400  0.4639 -155.3   9.682   85.0  0.0517   45.4  0.3607  -74.7
 1.500  0.4622 -159.9   9.064   82.3  0.0537   45.0  0.3396  -77.1
 1.600  0.4632 -164.3   8.505   79.6  0.0557   44.6  0.3212  -79.6
 1.700  0.4631 -168.6   8.014   77.2  0.0577   44.2  0.3038  -82.0
 1.800  0.4629 -172.4   7.556   74.8  0.0598   43.8  0.2882  -84.2
 1.900  0.4656 -176.3   7.150   72.5  0.0618   43.3  0.2729  -87.0
 2.000  0.4637 -179.6   6.788   70.4  0.0638   42.9  0.2595  -89.1
 2.200  0.4679  173.6   6.153   66.1  0.0679   42.0  0.2343  -94.3
 2.400  0.4726  167.3   5.616   62.2  0.0720   40.9  0.2118 -100.2
 2.600  0.4815  161.5   5.161   58.4  0.0760   39.7  0.1923 -106.6
 2.800  0.4895  156.3   4.766   54.9  0.0800   38.6  0.1754 -113.3
 3.000  0.4994  151.5   4.427   51.4  0.0841   37.3  0.1612 -120.6
 3.500  0.5292  140.0   3.743   43.0  0.0938   33.8  0.1389 -143.2
 4.000  0.5594  130.1   3.226   35.0  0.1036   30.1  0.1365 -166.3
 4.500  0.5809  122.4   2.809   27.4  0.1124   26.0  0.1490  174.8
 5.000  0.5945  116.3   2.480   20.7  0.1208   22.2  0.1629  160.8
 5.500  0.6103  110.0   2.224   14.2  0.1286   18.3  0.1800  149.1
 6.000  0.6306  103.9   2.022    7.7  0.1366   14.5  0.2005  138.8
 6.500  0.6526   98.5   1.854    1.0  0.1451   10.3  0.2205  129.9
 7.000  0.6695   93.0   1.715   -5.8  0.1541    5.9  0.2360  121.3
 7.500  0.6815   87.2   1.590  -12.7  0.1625    0.7  0.2578  113.7
 8.000  0.6953   80.7   1.458  -19.9  0.1678   -5.0  0.2861  106.1
 8.500  0.7134   73.7   1.323  -26.5  0.1687  -10.2  0.3217   97.6
 9.000  0.7484   67.5   1.212  -32.1  0.1690  -14.0  0.3716   90.5
 9.500  0.8015   63.0   1.127  -37.5  0.1707  -17.4  0.4310   85.9
10.000  0.8432   59.6   1.022  -42.9  0.1728  -20.9  0.4833   82.6
!
!  f       Fmin   Gammaopt  rn/50
! GHz       dB    MAG  ANG    -
 0.900      0.95  0.03 -151   0.13
 1.800      1.27  0.13 -152   0.12
 2.400      1.38  0.13 -160   0.14
 3.000      1.43  0.22 -145   0.13
 4.000      1.58  0.35 -123   0.17
 5.000      2.03  0.43 -103   0.28
 6.000      2.40  0.47  -91   0.43
!
! (c) 2009  Infineon Technologies AG, Munich