! Infineon Technologies  Discrete & RF Semiconductors
! BFP420
!
! VCE =  3.5 V,  IC =  1.5 mA
! Common Emitter S-Parameters:                            Nov 2009
# GHz  S  MA  R  50
!  f         S11            S21            S12            S22
! GHz     MAG   ANG      MAG   ANG      MAG   ANG      MAG   ANG
 0.010  0.9522   -1.1   5.538  179.3  0.0006   53.0  0.9962    0.0
 0.020  0.9491   -1.4   5.367  179.2  0.0018   87.5  0.9954   -0.7
 0.050  0.9481   -3.4   5.396  177.2  0.0046   85.3  0.9959   -1.7
 0.100  0.9463   -6.7   5.430  174.8  0.0092   85.0  0.9950   -3.6
 0.150  0.9442  -10.0   5.428  172.1  0.0138   83.5  0.9929   -5.4
 0.200  0.9438  -13.4   5.417  169.5  0.0184   81.8  0.9896   -7.2
 0.250  0.9412  -16.7   5.387  166.6  0.0230   79.9  0.9861   -9.0
 0.300  0.9379  -20.1   5.378  164.1  0.0275   78.1  0.9810  -10.8
 0.350  0.9338  -23.4   5.353  161.6  0.0320   76.3  0.9758  -12.5
 0.400  0.9294  -26.7   5.316  158.9  0.0364   74.3  0.9691  -14.3
 0.450  0.9247  -30.1   5.284  156.3  0.0407   72.5  0.9624  -16.0
 0.500  0.9189  -33.4   5.236  153.7  0.0449   70.6  0.9543  -17.8
 0.600  0.9066  -40.0   5.145  148.6  0.0531   66.8  0.9372  -21.1
 0.700  0.8926  -46.5   5.038  143.7  0.0609   63.1  0.9175  -24.4
 0.800  0.8780  -52.9   4.906  138.9  0.0681   59.5  0.8964  -27.5
 0.900  0.8634  -59.2   4.776  134.2  0.0749   56.0  0.8741  -30.5
 1.000  0.8479  -65.5   4.647  129.8  0.0812   52.8  0.8510  -33.4
 1.100  0.8331  -71.4   4.506  125.5  0.0870   49.6  0.8276  -36.1
 1.200  0.8184  -77.5   4.367  121.1  0.0924   46.4  0.8031  -38.9
 1.300  0.8039  -83.3   4.230  117.1  0.0973   43.5  0.7797  -41.4
 1.400  0.7892  -89.1   4.097  113.2  0.1017   40.5  0.7561  -43.9
 1.500  0.7764  -94.6   3.968  109.5  0.1058   37.8  0.7329  -46.2
 1.600  0.7640 -100.0   3.841  105.8  0.1092   35.1  0.7098  -48.4
 1.700  0.7499 -105.4   3.722  102.2  0.1125   32.6  0.6880  -50.5
 1.800  0.7390 -110.4   3.590   98.9  0.1153   30.1  0.6668  -52.5
 1.900  0.7286 -115.7   3.480   95.5  0.1179   27.8  0.6450  -54.5
 2.000  0.7173 -120.4   3.365   92.4  0.1202   25.6  0.6260  -56.2
 2.200  0.6980 -130.2   3.163   86.1  0.1238   21.3  0.5866  -59.8
 2.400  0.6815 -139.6   2.969   80.3  0.1266   17.2  0.5499  -63.3
 2.600  0.6711 -148.9   2.793   74.7  0.1282   13.4  0.5153  -66.6
 2.800  0.6605 -157.5   2.627   69.5  0.1291   10.1  0.4841  -69.6
 3.000  0.6562 -165.6   2.482   64.5  0.1294    6.9  0.4554  -72.6
 3.500  0.6563  175.2   2.167   52.5  0.1280    0.2  0.3919  -80.4
 4.000  0.6667  159.0   1.907   41.4  0.1254   -5.0  0.3430  -88.9
 4.500  0.6793  146.0   1.680   31.1  0.1215   -9.3  0.3067  -98.4
 5.000  0.6853  135.8   1.487   22.3  0.1170  -12.2  0.2799 -107.8
 5.500  0.6928  126.5   1.336   14.0  0.1124  -14.0  0.2585 -117.7
 6.000  0.7083  117.8   1.218    6.2  0.1090  -14.4  0.2430 -128.7
 6.500  0.7276  110.3   1.123   -1.6  0.1086  -14.2  0.2334 -140.4
 7.000  0.7422  103.2   1.041   -9.5  0.1105  -14.0  0.2266 -152.4
 7.500  0.7531   95.9   0.966  -17.2  0.1142  -14.6  0.2249 -166.2
 8.000  0.7611   87.9   0.887  -25.1  0.1177  -16.4  0.2281  178.3
 8.500  0.7694   79.6   0.807  -32.3  0.1191  -18.2  0.2345  160.9
 9.000  0.7976   72.5   0.741  -38.8  0.1205  -19.1  0.2632  142.7
 9.500  0.8473   67.1   0.685  -44.8  0.1235  -19.6  0.3208  129.4
10.000  0.8856   63.2   0.618  -51.1  0.1288  -20.6  0.3901  121.0
!
!  f       Fmin   Gammaopt  rn/50
! GHz       dB    MAG  ANG    -
 0.900      0.52  0.55   33   0.27
 1.800      1.07  0.35   77   0.21
 2.400      1.18  0.36  101   0.18
 3.000      1.41  0.36  134   0.13
 4.000      1.68  0.40 -172   0.10
 5.000      2.08  0.44 -130   0.32
 6.000      2.89  0.57 -114   0.39
!
! (c) 2009  Infineon Technologies AG, Munich