! Infineon Technologies  Discrete & RF Semiconductors
! BFP420
!
! VCE =  3.5 V,  IC =  8.0 mA
! Common Emitter S-Parameters:                            Nov 2009
# GHz  S  MA  R  50
!  f         S11            S21            S12            S22
! GHz     MAG   ANG      MAG   ANG      MAG   ANG      MAG   ANG
 0.010  0.7521   -1.8  23.240  178.9  0.0010   63.5  0.9694    0.7
 0.020  0.7581   -2.9  22.608  177.6  0.0019   72.3  0.9751   -1.5
 0.050  0.7558   -7.3  22.531  174.3  0.0041   80.8  0.9747   -4.0
 0.100  0.7541  -14.9  22.432  169.1  0.0081   78.9  0.9685   -8.2
 0.150  0.7444  -22.2  22.079  164.0  0.0122   76.7  0.9560  -12.3
 0.200  0.7354  -29.5  21.648  159.0  0.0159   74.3  0.9392  -16.3
 0.250  0.7212  -36.5  21.057  154.0  0.0195   71.1  0.9192  -20.0
 0.300  0.7077  -43.5  20.522  149.3  0.0229   68.5  0.8959  -23.7
 0.350  0.6932  -50.1  19.885  145.0  0.0260   65.9  0.8709  -27.1
 0.400  0.6789  -56.5  19.213  140.7  0.0288   63.4  0.8442  -30.3
 0.450  0.6625  -62.6  18.524  136.7  0.0315   61.0  0.8173  -33.3
 0.500  0.6472  -68.6  17.820  132.8  0.0339   58.9  0.7895  -36.2
 0.600  0.6186  -79.7  16.472  125.7  0.0381   55.1  0.7361  -41.3
 0.700  0.5924  -89.9  15.185  119.5  0.0417   51.9  0.6852  -45.8
 0.800  0.5703  -99.0  13.987  113.9  0.0447   49.4  0.6385  -49.7
 0.900  0.5530 -107.6  12.927  108.9  0.0473   47.2  0.5962  -53.3
 1.000  0.5381 -115.5  11.971  104.4  0.0497   45.5  0.5575  -56.6
 1.100  0.5263 -122.6  11.108  100.3  0.0519   44.1  0.5233  -59.5
 1.200  0.5173 -129.4  10.340   96.4  0.0539   42.8  0.4910  -62.3
 1.300  0.5096 -135.6   9.659   93.0  0.0559   41.8  0.4630  -64.8
 1.400  0.5035 -141.3   9.042   89.7  0.0577   40.8  0.4370  -67.4
 1.500  0.4987 -146.6   8.504   86.7  0.0595   40.1  0.4131  -69.6
 1.600  0.4962 -151.5   8.005   83.8  0.0612   39.3  0.3916  -71.8
 1.700  0.4921 -156.4   7.564   81.1  0.0630   38.7  0.3713  -74.0
 1.800  0.4906 -160.7   7.150   78.5  0.0646   38.1  0.3533  -76.0
 1.900  0.4896 -165.1   6.781   76.0  0.0664   37.5  0.3353  -78.4
 2.000  0.4866 -168.9   6.448   73.7  0.0681   37.0  0.3197  -80.1
 2.200  0.4868 -176.7   5.865   69.1  0.0715   35.9  0.2895  -84.5
 2.400  0.4888  176.1   5.368   64.9  0.0748   34.8  0.2623  -89.0
 2.600  0.4952  169.4   4.939   60.7  0.0780   33.8  0.2378  -93.9
 2.800  0.5008  163.5   4.567   56.9  0.0813   32.8  0.2160  -98.9
 3.000  0.5093  158.0   4.248   53.3  0.0847   31.7  0.1968 -104.3
 3.500  0.5363  145.1   3.600   44.4  0.0928   28.8  0.1583 -121.7
 4.000  0.5638  134.3   3.106   36.0  0.1011   25.7  0.1379 -142.4
 4.500  0.5865  125.7   2.709   28.1  0.1088   22.2  0.1355 -163.4
 5.000  0.5997  119.0   2.391   21.1  0.1162   18.9  0.1402  179.7
 5.500  0.6147  112.3   2.144   14.4  0.1231   15.6  0.1509  164.7
 6.000  0.6347  105.9   1.949    7.8  0.1303   12.4  0.1663  151.5
 6.500  0.6565  100.1   1.789    0.9  0.1383    8.6  0.1833  140.6
 7.000  0.6735   94.4   1.655   -6.1  0.1468    4.7  0.1972  130.6
 7.500  0.6850   88.6   1.535  -13.0  0.1551   -0.1  0.2182  121.7
 8.000  0.6982   81.7   1.408  -20.4  0.1606   -5.5  0.2462  112.9
 8.500  0.7165   74.6   1.279  -27.0  0.1618  -10.5  0.2814  103.1
 9.000  0.7507   68.4   1.173  -32.8  0.1625  -14.1  0.3317   94.9
 9.500  0.8040   63.7   1.090  -38.3  0.1643  -17.3  0.3922   89.9
10.000  0.8455   60.2   0.989  -44.0  0.1669  -20.5  0.4467   86.5
!
!  f       Fmin   Gammaopt  rn/50
! GHz       dB    MAG  ANG    -
 0.900      0.79  0.08   30   0.13
 1.800      1.14  0.06  171   0.12
 2.400      1.24  0.10  160   0.13
 3.000      1.32  0.17 -165   0.12
 4.000      1.46  0.32 -132   0.14
 5.000      1.85  0.39 -110   0.25
 6.000      2.30  0.46  -95   0.37
!
! (c) 2009  Infineon Technologies AG, Munich