! Infineon Technologies  Discrete & RF Semiconductors
! BFP420
!
! VCE =  3.0 V,  IC =  1.5 mA
! Common Emitter S-Parameters:                            Nov 2009
# GHz  S  MA  R  50
!  f         S11            S21            S12            S22
! GHz     MAG   ANG      MAG   ANG      MAG   ANG      MAG   ANG
 0.010  0.9463   -1.3   5.534  179.3  0.0010   87.2  0.9959    0.0
 0.020  0.9472   -1.3   5.361  179.2  0.0020   84.2  0.9961   -0.7
 0.050  0.9458   -3.2   5.391  177.2  0.0047   88.4  0.9965   -1.8
 0.100  0.9435   -6.8   5.423  174.7  0.0095   85.8  0.9953   -3.7
 0.150  0.9426  -10.1   5.419  172.0  0.0143   84.3  0.9931   -5.6
 0.200  0.9429  -13.5   5.413  169.4  0.0190   82.2  0.9897   -7.4
 0.250  0.9385  -16.9   5.377  166.5  0.0237   80.2  0.9857   -9.3
 0.300  0.9357  -20.3   5.369  163.9  0.0283   78.2  0.9805  -11.2
 0.350  0.9312  -23.7   5.344  161.4  0.0330   76.2  0.9748  -13.0
 0.400  0.9266  -26.9   5.305  158.7  0.0375   74.3  0.9680  -14.7
 0.450  0.9217  -30.3   5.269  156.1  0.0419   72.4  0.9609  -16.5
 0.500  0.9165  -33.7   5.225  153.4  0.0463   70.5  0.9524  -18.3
 0.600  0.9039  -40.3   5.127  148.3  0.0547   66.6  0.9345  -21.8
 0.700  0.8897  -46.9   5.018  143.3  0.0626   62.8  0.9141  -25.1
 0.800  0.8759  -53.3   4.882  138.5  0.0700   59.2  0.8923  -28.3
 0.900  0.8604  -59.6   4.752  133.8  0.0770   55.7  0.8690  -31.3
 1.000  0.8453  -66.0   4.618  129.3  0.0834   52.3  0.8449  -34.4
 1.100  0.8305  -72.0   4.475  125.0  0.0893   49.2  0.8208  -37.1
 1.200  0.8153  -78.1   4.336  120.7  0.0948   46.0  0.7959  -39.9
 1.300  0.8011  -83.9   4.199  116.7  0.0997   43.0  0.7720  -42.5
 1.400  0.7869  -89.7   4.064  112.7  0.1042   40.0  0.7476  -45.0
 1.500  0.7735  -95.2   3.933  109.1  0.1083   37.3  0.7237  -47.4
 1.600  0.7620 -100.7   3.808  105.3  0.1117   34.6  0.7004  -49.6
 1.700  0.7476 -106.1   3.686  101.8  0.1152   32.1  0.6782  -51.7
 1.800  0.7368 -111.1   3.555   98.4  0.1180   29.6  0.6569  -53.7
 1.900  0.7269 -116.4   3.445   95.0  0.1206   27.3  0.6350  -55.8
 2.000  0.7162 -121.1   3.331   91.9  0.1228   25.1  0.6154  -57.6
 2.200  0.6963 -130.9   3.127   85.7  0.1265   20.8  0.5761  -61.3
 2.400  0.6802 -140.3   2.935   79.9  0.1293   16.6  0.5390  -64.7
 2.600  0.6701 -149.6   2.762   74.2  0.1309   12.9  0.5044  -68.1
 2.800  0.6604 -158.1   2.595   69.1  0.1316    9.6  0.4729  -71.2
 3.000  0.6566 -166.3   2.453   64.0  0.1319    6.3  0.4444  -74.3
 3.500  0.6565  174.7   2.139   52.1  0.1304   -0.5  0.3811  -82.4
 4.000  0.6680  158.6   1.884   41.0  0.1277   -5.7  0.3327  -91.2
 4.500  0.6799  145.6   1.659   30.8  0.1236  -10.0  0.2971 -101.1
 5.000  0.6863  135.4   1.468   21.9  0.1189  -12.9  0.2717 -110.8
 5.500  0.6947  126.1   1.320   13.6  0.1142  -14.8  0.2513 -121.1
 6.000  0.7099  117.7   1.202    5.9  0.1108  -15.2  0.2375 -132.5
 6.500  0.7288  110.0   1.109   -2.0  0.1102  -15.1  0.2295 -144.5
 7.000  0.7437  103.0   1.027   -9.9  0.1120  -14.9  0.2244 -156.7
 7.500  0.7543   95.7   0.954  -17.5  0.1156  -15.6  0.2249 -170.7
 8.000  0.7629   87.7   0.876  -25.5  0.1188  -17.4  0.2306  174.1
 8.500  0.7707   79.5   0.796  -32.6  0.1200  -19.2  0.2399  157.0
 9.000  0.7984   72.4   0.731  -39.1  0.1212  -20.1  0.2712  139.6
 9.500  0.8483   67.0   0.676  -45.0  0.1241  -20.6  0.3302  127.0
10.000  0.8872   63.0   0.609  -51.2  0.1293  -21.5  0.3999  119.1
!
!  f       Fmin   Gammaopt  rn/50
! GHz       dB    MAG  ANG    -
 0.900      0.52  0.55   33   0.27
 1.800      1.07  0.35   77   0.21
 2.400      1.18  0.36  101   0.18
 3.000      1.41  0.36  134   0.13
 4.000      1.68  0.40 -172   0.10
 5.000      2.08  0.44 -130   0.32
 6.000      2.89  0.57 -114   0.39
!
! (c) 2009  Infineon Technologies AG, Munich