! Infineon Technologies  Discrete & RF Semiconductors
! BFP420
!
! VCE =  3.0 V,  IC =  2.5 mA
! Common Emitter S-Parameters:                            Nov 2009
# GHz  S  MA  R  50
!  f         S11            S21            S12            S22
! GHz     MAG   ANG      MAG   ANG      MAG   ANG      MAG   ANG
 0.010  0.9082   -1.5   8.679  179.3  0.0008   79.3  0.9931    0.1
 0.020  0.9127   -1.6   8.439  178.9  0.0019   81.7  0.9940   -0.9
 0.050  0.9133   -4.1   8.473  176.7  0.0047   87.7  0.9938   -2.2
 0.100  0.9111   -8.2   8.508  173.7  0.0093   84.3  0.9922   -4.6
 0.150  0.9094  -12.3   8.489  170.5  0.0140   82.8  0.9887   -6.9
 0.200  0.9073  -16.5   8.455  167.4  0.0186   80.7  0.9836   -9.2
 0.250  0.9018  -20.5   8.375  164.1  0.0231   78.4  0.9776  -11.5
 0.300  0.8961  -24.6   8.340  161.0  0.0275   76.2  0.9700  -13.7
 0.350  0.8897  -28.7   8.263  158.0  0.0320   73.9  0.9612  -15.9
 0.400  0.8833  -32.7   8.170  155.0  0.0362   71.7  0.9510  -18.1
 0.450  0.8753  -36.7   8.077  152.0  0.0403   69.6  0.9404  -20.3
 0.500  0.8661  -40.6   7.965  149.0  0.0443   67.5  0.9280  -22.3
 0.600  0.8484  -48.5   7.730  143.2  0.0518   63.2  0.9023  -26.5
 0.700  0.8294  -56.1   7.481  137.7  0.0587   59.3  0.8736  -30.3
 0.800  0.8091  -63.4   7.186  132.5  0.0649   55.6  0.8441  -34.0
 0.900  0.7900  -70.6   6.912  127.4  0.0706   52.1  0.8134  -37.4
 1.000  0.7705  -77.6   6.638  122.7  0.0757   48.8  0.7828  -40.7
 1.100  0.7527  -84.2   6.353  118.3  0.0802   45.7  0.7529  -43.7
 1.200  0.7353  -90.7   6.087  113.9  0.0843   42.7  0.7226  -46.7
 1.300  0.7195  -96.9   5.830  109.9  0.0879   40.0  0.6943  -49.4
 1.400  0.7048 -103.1   5.582  105.9  0.0911   37.4  0.6664  -52.0
 1.500  0.6909 -108.7   5.352  102.3  0.0940   35.1  0.6396  -54.5
 1.600  0.6793 -114.4   5.130   98.7  0.0964   32.8  0.6144  -56.8
 1.700  0.6668 -119.9   4.924   95.3  0.0987   30.6  0.5900  -59.0
 1.800  0.6574 -125.0   4.715   92.1  0.1006   28.6  0.5674  -61.0
 1.900  0.6477 -130.3   4.531   88.9  0.1024   26.7  0.5444  -63.2
 2.000  0.6387 -134.9   4.354   86.0  0.1039   25.0  0.5244  -64.9
 2.200  0.6228 -144.6   4.035   80.2  0.1064   21.7  0.4844  -68.6
 2.400  0.6119 -153.7   3.748   74.8  0.1084   18.6  0.4475  -72.3
 2.600  0.6065 -162.5   3.493   69.7  0.1097   15.8  0.4137  -75.8
 2.800  0.6017 -170.5   3.260   64.9  0.1105   13.5  0.3831  -79.2
 3.000  0.6013 -178.1   3.059   60.3  0.1112   11.2  0.3555  -82.5
 3.500  0.6113  164.7   2.634   49.4  0.1119    6.6  0.2957  -91.8
 4.000  0.6292  150.2   2.297   39.3  0.1125    3.2  0.2506 -102.4
 4.500  0.6453  138.6   2.013   29.9  0.1126    0.3  0.2197 -114.5
 5.000  0.6545  129.7   1.778   21.7  0.1128   -1.7  0.1990 -126.3
 5.500  0.6649  121.3   1.596   14.0  0.1130   -3.2  0.1849 -139.1
 6.000  0.6813  113.5   1.453    6.6  0.1145   -4.1  0.1774 -153.1
 6.500  0.7022  106.5   1.337   -0.9  0.1181   -5.2  0.1762 -167.1
 7.000  0.7179  100.0   1.238   -8.5  0.1233   -6.6  0.1773  179.4
 7.500  0.7289   93.2   1.149  -16.0  0.1293   -9.0  0.1865  165.7
 8.000  0.7393   85.6   1.055  -23.7  0.1341  -12.4  0.2026  151.1
 8.500  0.7506   77.8   0.959  -30.8  0.1356  -15.8  0.2249  135.2
 9.000  0.7810   71.0   0.880  -37.1  0.1367  -17.9  0.2676  120.9
 9.500  0.8316   65.8   0.815  -42.9  0.1391  -19.6  0.3301  111.8
10.000  0.8711   62.1   0.737  -49.1  0.1432  -21.6  0.3954  106.4
!
!  f       Fmin   Gammaopt  rn/50
! GHz       dB    MAG  ANG    -
 0.900      0.55  0.41   33   0.20
 1.800      1.02  0.24   78   0.16
 2.400      1.11  0.26  103   0.15
 3.000      1.28  0.27  140   0.11
 4.000      1.50  0.34 -163   0.10
 5.000      1.85  0.40 -130   0.26
 6.000      2.56  0.50 -109   0.35
!
! (c) 2009  Infineon Technologies AG, Munich