! Infineon Technologies  Discrete & RF Semiconductors
! BFP420
!
! VCE =  3.5 V,  IC =  12 mA
! Common Emitter S-Parameters:                            Nov 2009
# GHz  S  MA  R  50
!  f         S11            S21            S12            S22
! GHz     MAG   ANG      MAG   ANG      MAG   ANG      MAG   ANG
 0.010  0.6599   -1.3  30.968  178.8  0.0010   83.9  0.9527    1.0
 0.020  0.6651   -3.4  30.059  177.0  0.0017   65.4  0.9633   -1.8
 0.050  0.6604   -9.3  29.868  173.1  0.0037   75.9  0.9628   -4.9
 0.100  0.6573  -18.9  29.528  166.8  0.0078   77.6  0.9527  -10.1
 0.150  0.6482  -28.2  28.826  160.7  0.0113   74.7  0.9342  -15.1
 0.200  0.6378  -37.0  27.956  154.8  0.0147   71.9  0.9093  -19.8
 0.250  0.6216  -45.7  26.862  149.1  0.0179   68.9  0.8808  -24.2
 0.300  0.6068  -53.9  25.842  143.9  0.0207   66.1  0.8484  -28.2
 0.350  0.5912  -61.7  24.716  139.1  0.0233   63.5  0.8151  -32.0
 0.400  0.5773  -68.9  23.568  134.5  0.0256   61.1  0.7813  -35.5
 0.450  0.5626  -75.9  22.436  130.3  0.0278   59.0  0.7483  -38.7
 0.500  0.5488  -82.5  21.336  126.3  0.0297   57.2  0.7157  -41.6
 0.600  0.5258  -94.5  19.294  119.2  0.0330   54.2  0.6555  -46.7
 0.700  0.5067 -105.2  17.480  113.2  0.0358   51.9  0.6018  -51.1
 0.800  0.4924 -114.5  15.870  107.8  0.0383   50.2  0.5549  -54.8
 0.900  0.4811 -122.9  14.498  103.1  0.0405   48.9  0.5138  -58.1
 1.000  0.4735 -130.6  13.298   98.9  0.0427   48.0  0.4771  -61.3
 1.100  0.4671 -137.2  12.242   95.2  0.0448   47.3  0.4457  -64.0
 1.200  0.4635 -143.5  11.322   91.6  0.0468   46.6  0.4166  -66.8
 1.300  0.4611 -149.1  10.519   88.5  0.0488   46.1  0.3914  -69.2
 1.400  0.4599 -154.4   9.806   85.4  0.0507   45.7  0.3684  -71.7
 1.500  0.4582 -159.0   9.182   82.7  0.0528   45.2  0.3475  -74.0
 1.600  0.4593 -163.4   8.617   80.0  0.0547   44.9  0.3290  -76.2
 1.700  0.4587 -167.9   8.122   77.6  0.0567   44.5  0.3113  -78.5
 1.800  0.4590 -171.5   7.660   75.2  0.0587   44.1  0.2958  -80.6
 1.900  0.4607 -175.6   7.249   72.9  0.0607   43.6  0.2803  -83.2
 2.000  0.4592 -178.9   6.884   70.7  0.0628   43.3  0.2668  -85.0
 2.200  0.4631  174.2   6.242   66.5  0.0669   42.3  0.2410  -90.0
 2.400  0.4678  167.9   5.700   62.5  0.0708   41.2  0.2177  -95.3
 2.600  0.4778  162.0   5.235   58.7  0.0748   40.1  0.1971 -101.1
 2.800  0.4840  156.8   4.836   55.2  0.0788   39.0  0.1791 -107.4
 3.000  0.4944  151.9   4.493   51.7  0.0828   37.8  0.1635 -114.0
 3.500  0.5247  140.4   3.798   43.2  0.0925   34.3  0.1363 -135.6
 4.000  0.5535  130.5   3.275   35.3  0.1022   30.6  0.1288 -159.3
 4.500  0.5764  122.7   2.853   27.7  0.1110   26.5  0.1381 -179.7
 5.000  0.5906  116.5   2.518   21.0  0.1194   22.7  0.1503  165.1
 5.500  0.6058  110.2   2.259   14.4  0.1272   18.8  0.1665  152.3
 6.000  0.6270  104.1   2.054    8.0  0.1352   15.1  0.1862  141.2
 6.500  0.6488   98.7   1.884    1.3  0.1436   10.8  0.2058  131.8
 7.000  0.6659   93.2   1.742   -5.6  0.1525    6.4  0.2211  122.9
 7.500  0.6779   87.4   1.616  -12.5  0.1610    1.3  0.2429  115.1
 8.000  0.6921   80.8   1.481  -19.7  0.1664   -4.4  0.2713  107.2
 8.500  0.7108   73.9   1.345  -26.2  0.1674   -9.6  0.3073   98.5
 9.000  0.7459   67.7   1.232  -31.9  0.1679  -13.4  0.3577   91.2
 9.500  0.7994   63.1   1.147  -37.3  0.1697  -16.8  0.4177   86.5
10.000  0.8410   59.8   1.039  -42.8  0.1719  -20.3  0.4704   83.2
!
!  f       Fmin   Gammaopt  rn/50
! GHz       dB    MAG  ANG    -
 0.900      0.95  0.03 -151   0.13
 1.800      1.27  0.13 -152   0.12
 2.400      1.38  0.13 -160   0.14
 3.000      1.43  0.22 -145   0.13
 4.000      1.58  0.35 -123   0.17
 5.000      2.03  0.43 -103   0.28
 6.000      2.40  0.47  -91   0.43
!
! (c) 2009  Infineon Technologies AG, Munich