! Infineon Technologies  Discrete & RF Semiconductors
! BFP420
!
! VCE =  3.5 V,  IC =  5.0 mA
! Common Emitter S-Parameters:                            Nov 2009
# GHz  S  MA  R  50
!  f         S11            S21            S12            S22
! GHz     MAG   ANG      MAG   ANG      MAG   ANG      MAG   ANG
 0.010  0.8393   -1.5  15.997  179.0  0.0009   53.5  0.9820    0.4
 0.020  0.8395   -2.7  15.564  178.3  0.0019   71.2  0.9849   -1.2
 0.050  0.8360   -5.6  15.570  175.5  0.0044   82.3  0.9848   -3.1
 0.100  0.8351  -11.5  15.568  171.4  0.0087   80.8  0.9814   -6.4
 0.150  0.8305  -17.2  15.439  167.2  0.0129   79.4  0.9741   -9.6
 0.200  0.8253  -22.8  15.269  163.1  0.0170   76.9  0.9638  -12.7
 0.250  0.8147  -28.4  15.007  158.9  0.0211   74.3  0.9516  -15.8
 0.300  0.8049  -34.0  14.793  155.0  0.0249   71.8  0.9366  -18.8
 0.350  0.7929  -39.4  14.512  151.2  0.0285   69.2  0.9202  -21.7
 0.400  0.7819  -44.6  14.184  147.5  0.0320   66.8  0.9018  -24.4
 0.450  0.7688  -49.9  13.855  143.8  0.0353   64.5  0.8828  -27.1
 0.500  0.7547  -54.9  13.499  140.3  0.0384   62.2  0.8623  -29.7
 0.600  0.7281  -64.7  12.776  133.6  0.0439   58.0  0.8203  -34.6
 0.700  0.7006  -74.0  12.049  127.4  0.0487   54.2  0.7776  -38.9
 0.800  0.6768  -82.5  11.301  121.8  0.0528   50.9  0.7362  -42.9
 0.900  0.6536  -90.6  10.621  116.6  0.0564   47.9  0.6965  -46.5
 1.000  0.6338  -98.5   9.981  111.9  0.0596   45.3  0.6584  -49.9
 1.100  0.6159 -105.6   9.376  107.5  0.0623   43.0  0.6240  -52.9
 1.200  0.6008 -112.6   8.822  103.3  0.0648   40.9  0.5903  -55.9
 1.300  0.5882 -118.9   8.312   99.5  0.0670   39.1  0.5602  -58.5
 1.400  0.5773 -125.1   7.842   95.9  0.0690   37.5  0.5317  -61.1
 1.500  0.5673 -130.8   7.423   92.6  0.0709   36.0  0.5051  -63.4
 1.600  0.5600 -136.1   7.027   89.3  0.0725   34.7  0.4808  -65.6
 1.700  0.5520 -141.5   6.675   86.4  0.0741   33.5  0.4577  -67.8
 1.800  0.5460 -146.2   6.335   83.5  0.0756   32.4  0.4370  -69.7
 1.900  0.5416 -151.2   6.035   80.7  0.0771   31.3  0.4162  -71.9
 2.000  0.5369 -155.4   5.754   78.2  0.0785   30.5  0.3982  -73.6
 2.200  0.5296 -164.3   5.261   73.1  0.0811   28.7  0.3630  -77.5
 2.400  0.5270 -172.4   4.835   68.4  0.0835   27.1  0.3309  -81.4
 2.600  0.5294  179.9   4.467   63.9  0.0858   25.7  0.3020  -85.4
 2.800  0.5316  173.1   4.142   59.8  0.0880   24.5  0.2760  -89.4
 3.000  0.5372  166.8   3.861   55.8  0.0903   23.3  0.2528  -93.5
 3.500  0.5594  152.2   3.286   46.2  0.0957   20.5  0.2029 -106.3
 4.000  0.5838  139.9   2.843   37.3  0.1015   17.9  0.1687 -121.8
 4.500  0.6039  130.3   2.482   28.8  0.1071   15.1  0.1509 -139.5
 5.000  0.6160  122.8   2.191   21.4  0.1125   12.6  0.1429 -155.8
 5.500  0.6296  115.5   1.964   14.4  0.1176   10.1  0.1428 -172.2
 6.000  0.6487  108.6   1.787    7.5  0.1234    7.7  0.1493  171.9
 6.500  0.6699  102.4   1.641    0.4  0.1302    4.8  0.1599  158.4
 7.000  0.6864   96.4   1.519   -6.8  0.1380    1.7  0.1701  146.6
 7.500  0.6982   90.2   1.409  -13.9  0.1459   -2.4  0.1884  135.5
 8.000  0.7102   83.1   1.293  -21.5  0.1513   -7.3  0.2140  124.4
 8.500  0.7268   75.7   1.175  -28.3  0.1528  -11.9  0.2468  112.4
 9.000  0.7598   69.2   1.078  -34.3  0.1537  -15.1  0.2960  102.5
 9.500  0.8125   64.4   1.002  -39.9  0.1557  -17.9  0.3575   96.5
10.000  0.8529   60.9   0.908  -45.8  0.1588  -20.8  0.4156   92.8
!
!  f       Fmin   Gammaopt  rn/50
! GHz       dB    MAG  ANG    -
 0.900      0.66  0.21   31   0.15
 1.800      1.05  0.09   93   0.13
 2.400      1.14  0.14  119   0.13
 3.000      1.24  0.17  165   0.11
 4.000      1.41  0.31 -145   0.12
 5.000      1.85  0.38 -119   0.21
 6.000      2.30  0.45 -101   0.36
!
! (c) 2009  Infineon Technologies AG, Munich