! Infineon Technologies  Discrete & RF Semiconductors
! BFP420
!
! VCE =  3.0 V,  IC =  4.0 mA
! Common Emitter S-Parameters:                            Nov 2009
# GHz  S  MA  R  50
!  f         S11            S21            S12            S22
! GHz     MAG   ANG      MAG   ANG      MAG   ANG      MAG   ANG
 0.010  0.8679   -1.9  13.177  179.2  0.0004   48.4  0.9889    0.2
 0.020  0.8667   -2.2  12.852  178.5  0.0019   86.3  0.9901   -1.1
 0.050  0.8635   -5.0  12.875  175.9  0.0046   84.1  0.9899   -2.9
 0.100  0.8656  -10.5  12.906  172.2  0.0090   84.1  0.9870   -5.9
 0.150  0.8607  -15.5  12.825  168.3  0.0136   81.3  0.9811   -8.8
 0.200  0.8553  -20.6  12.721  164.6  0.0179   78.6  0.9729  -11.7
 0.250  0.8467  -25.7  12.536  160.7  0.0223   76.2  0.9632  -14.5
 0.300  0.8382  -30.8  12.408  157.1  0.0264   73.7  0.9508  -17.3
 0.350  0.8283  -35.8  12.213  153.5  0.0304   71.1  0.9370  -20.0
 0.400  0.8184  -40.5  11.990  150.0  0.0341   68.6  0.9213  -22.6
 0.450  0.8066  -45.4  11.764  146.5  0.0378   66.2  0.9051  -25.2
 0.500  0.7948  -50.1  11.506  143.2  0.0413   64.0  0.8872  -27.7
 0.600  0.7703  -59.3  10.994  136.7  0.0476   59.6  0.8502  -32.4
 0.700  0.7452  -68.1  10.454  130.7  0.0532   55.6  0.8114  -36.8
 0.800  0.7216  -76.2   9.883  125.2  0.0580   52.0  0.7728  -40.8
 0.900  0.6988  -84.2   9.359  119.9  0.0622   48.7  0.7348  -44.5
 1.000  0.6784  -91.8   8.854  115.1  0.0660   45.8  0.6983  -48.0
 1.100  0.6605  -98.8   8.364  110.7  0.0692   43.2  0.6639  -51.1
 1.200  0.6438 -105.7   7.908  106.4  0.0721   40.7  0.6302  -54.1
 1.300  0.6291 -112.2   7.486  102.5  0.0747   38.6  0.5996  -56.9
 1.400  0.6163 -118.4   7.095   98.7  0.0769   36.5  0.5703  -59.5
 1.500  0.6053 -124.1   6.737   95.4  0.0790   34.8  0.5431  -62.0
 1.600  0.5965 -129.7   6.400   91.9  0.0807   33.1  0.5178  -64.3
 1.700  0.5869 -135.1   6.097   88.8  0.0824   31.6  0.4936  -66.5
 1.800  0.5802 -139.9   5.797   85.8  0.0839   30.2  0.4718  -68.5
 1.900  0.5733 -145.0   5.535   83.0  0.0855   28.8  0.4498  -70.8
 2.000  0.5669 -149.5   5.287   80.3  0.0868   27.7  0.4309  -72.5
 2.200  0.5576 -158.5   4.853   75.0  0.0892   25.4  0.3937  -76.5
 2.400  0.5518 -167.0   4.471   70.1  0.0913   23.4  0.3596  -80.4
 2.600  0.5527 -175.2   4.140   65.4  0.0931   21.6  0.3290  -84.3
 2.800  0.5530  177.7   3.844   61.1  0.0948   20.1  0.3015  -88.2
 3.000  0.5574  171.0   3.589   56.9  0.0965   18.7  0.2768  -92.2
 3.500  0.5756  155.6   3.063   46.9  0.1004   15.6  0.2241 -104.1
 4.000  0.5989  142.7   2.656   37.6  0.1047   13.0  0.1871 -118.3
 4.500  0.6176  132.5   2.321   28.9  0.1087   10.3  0.1661 -134.6
 5.000  0.6288  124.6   2.047   21.3  0.1127    8.2  0.1550 -149.7
 5.500  0.6414  117.0   1.837   14.1  0.1166    6.0  0.1519 -165.4
 6.000  0.6604  109.9   1.671    7.1  0.1213    4.1  0.1556  178.9
 6.500  0.6806  103.5   1.535   -0.2  0.1274    1.7  0.1639  165.3
 7.000  0.6974   97.3   1.422   -7.5  0.1346   -1.0  0.1726  153.1
 7.500  0.7091   91.0   1.318  -14.7  0.1420   -4.7  0.1897  141.5
 8.000  0.7201   83.7   1.210  -22.3  0.1472   -9.2  0.2138  129.6
 8.500  0.7348   76.2   1.099  -29.2  0.1487  -13.4  0.2447  116.9
 9.000  0.7670   69.6   1.009  -35.3  0.1496  -16.4  0.2928  106.2
 9.500  0.8186   64.7   0.936  -41.0  0.1516  -18.9  0.3548   99.7
10.000  0.8591   61.2   0.848  -46.9  0.1549  -21.6  0.4146   95.7
!
!  f       Fmin   Gammaopt  rn/50
! GHz       dB    MAG  ANG    -
 0.900      0.61  0.27   32   0.16
 1.800      1.03  0.14   83   0.13
 2.400      1.11  0.17  110   0.14
 3.000      1.23  0.20  153   0.11
 4.000      1.42  0.31 -151   0.11
 5.000      1.77  0.38 -123   0.23
 6.000      2.35  0.47 -104   0.33
!
! (c) 2009  Infineon Technologies AG, Munich