! Infineon Technologies  Discrete & RF Semiconductors
! BFP420
!
! VCE =  3.0 V,  IC =  20 mA
! Common Emitter S-Parameters:                            Nov 2009
# GHz  S  MA  R  50
!  f         S11            S21            S12            S22
! GHz     MAG   ANG      MAG   ANG      MAG   ANG      MAG   ANG
 0.010  0.5332   -3.1  41.729  178.8  0.0011   84.1  0.9416    1.8
 0.020  0.5259   -4.7  40.737  176.3  0.0017   87.8  0.9546   -2.1
 0.050  0.5267  -12.9  40.356  171.4  0.0037   84.0  0.9553   -6.3
 0.100  0.5236  -26.3  39.510  163.4  0.0073   78.7  0.9380  -13.1
 0.150  0.5131  -38.7  37.970  155.8  0.0105   74.9  0.9074  -19.5
 0.200  0.5048  -50.6  36.150  148.9  0.0134   71.1  0.8685  -25.3
 0.250  0.4911  -61.7  34.037  142.3  0.0160   67.6  0.8259  -30.4
 0.300  0.4813  -71.8  32.072  136.5  0.0183   64.7  0.7810  -35.1
 0.350  0.4712  -81.0  30.065  131.3  0.0204   62.3  0.7372  -39.2
 0.400  0.4630  -89.3  28.161  126.5  0.0222   60.4  0.6956  -42.9
 0.450  0.4550  -96.9  26.363  122.3  0.0238   58.8  0.6565  -46.1
 0.500  0.4492 -104.0  24.699  118.4  0.0253   57.6  0.6201  -49.0
 0.600  0.4391 -116.1  21.790  111.6  0.0280   55.7  0.5566  -54.0
 0.700  0.4333 -126.3  19.362  106.0  0.0304   54.6  0.5036  -58.1
 0.800  0.4301 -135.0  17.331  101.1  0.0327   53.9  0.4593  -61.7
 0.900  0.4279 -142.4  15.650   96.9  0.0350   53.4  0.4220  -64.9
 1.000  0.4280 -149.1  14.226   93.1  0.0372   53.2  0.3895  -67.9
 1.100  0.4286 -154.7  13.008   89.7  0.0394   52.9  0.3621  -70.7
 1.200  0.4310 -160.1  11.960   86.6  0.0417   52.7  0.3371  -73.6
 1.300  0.4322 -164.6  11.060   83.7  0.0440   52.5  0.3158  -76.1
 1.400  0.4350 -169.0  10.277   81.0  0.0462   52.3  0.2967  -78.9
 1.500  0.4362 -172.8   9.591   78.6  0.0486   52.0  0.2792  -81.4
 1.600  0.4391 -176.4   8.975   76.2  0.0509   51.7  0.2640  -84.0
 1.700  0.4416  179.8   8.442   73.9  0.0532   51.3  0.2496  -86.6
 1.800  0.4431  176.8   7.949   71.7  0.0556   50.8  0.2368  -89.1
 1.900  0.4478  173.6   7.508   69.7  0.0579   50.4  0.2243  -92.2
 2.000  0.4470  170.8   7.120   67.7  0.0603   49.9  0.2133  -94.5
 2.200  0.4535  164.8   6.443   63.8  0.0650   48.7  0.1928 -100.6
 2.400  0.4603  159.6   5.871   60.1  0.0697   47.4  0.1749 -107.5
 2.600  0.4712  154.6   5.389   56.5  0.0743   46.0  0.1599 -115.2
 2.800  0.4796  150.0   4.972   53.2  0.0788   44.6  0.1476 -123.5
 3.000  0.4902  145.8   4.614   49.9  0.0834   43.0  0.1381 -132.2
 3.500  0.5225  135.6   3.896   41.9  0.0944   38.8  0.1291 -157.5
 4.000  0.5520  126.7   3.355   34.2  0.1050   34.4  0.1386 -180.0
 4.500  0.5754  119.6   2.922   26.9  0.1147   29.7  0.1589  163.5
 5.000  0.5893  114.0   2.580   20.4  0.1237   25.4  0.1769  151.5
 5.500  0.6050  108.1   2.314   14.1  0.1322   21.2  0.1971  141.6
 6.000  0.6265  102.4   2.104    7.8  0.1407   16.9  0.2198  132.6
 6.500  0.6482   97.1   1.929    1.2  0.1495   12.3  0.2411  124.5
 7.000  0.6653   91.9   1.783   -5.5  0.1586    7.5  0.2573  116.5
 7.500  0.6772   86.2   1.653  -12.3  0.1672    2.1  0.2792  109.6
 8.000  0.6911   79.8   1.516  -19.4  0.1725   -4.0  0.3075  102.5
 8.500  0.7104   73.0   1.375  -25.9  0.1731   -9.3  0.3433   94.7
 9.000  0.7458   66.9   1.258  -31.4  0.1734  -13.2  0.3931   88.0
 9.500  0.7998   62.5   1.170  -36.6  0.1750  -16.7  0.4524   83.7
10.000  0.8408   59.2   1.061  -41.9  0.1769  -20.4  0.5035   80.2
!
!  f       Fmin   Gammaopt  rn/50
! GHz       dB    MAG  ANG    -
 0.900      1.23  0.16 -154   0.13
 1.800      1.51  0.24 -144   0.13
 2.400      1.66  0.22 -141   0.15
 3.000      1.69  0.30 -132   0.16
 4.000      1.82  0.42 -115   0.23
 5.000      2.28  0.48  -96   0.37
 6.000      2.65  0.52  -86   0.56
!
! (c) 2009  Infineon Technologies AG, Munich