! Infineon Technologies  Discrete & RF Semiconductors
! BFP420
!
! VCE =  3.5 V,  IC =  0.5 mA
! Common Emitter S-Parameters:                            Nov 2009
# GHz  S  MA  R  50
!  f         S11            S21            S12            S22
! GHz     MAG   ANG      MAG   ANG      MAG   ANG      MAG   ANG
 0.010  0.9793   -1.4   1.913  179.4  0.0007   68.2  0.9991   -0.1
 0.020  0.9840   -1.2   1.859  179.6  0.0019   83.9  0.9981   -0.5
 0.050  0.9788   -2.2   1.872  177.9  0.0047   86.7  0.9987   -1.2
 0.100  0.9800   -5.0   1.880  175.9  0.0094   86.4  0.9981   -2.6
 0.150  0.9809   -7.4   1.885  173.7  0.0142   85.4  0.9969   -3.9
 0.200  0.9823   -9.8   1.885  171.6  0.0188   83.9  0.9951   -5.2
 0.250  0.9803  -12.3   1.878  169.3  0.0236   82.4  0.9930   -6.5
 0.300  0.9780  -14.8   1.882  167.2  0.0282   80.9  0.9902   -7.8
 0.350  0.9760  -17.4   1.881  165.2  0.0330   79.4  0.9872   -9.1
 0.400  0.9757  -19.8   1.874  163.0  0.0376   77.8  0.9836  -10.4
 0.450  0.9723  -22.3   1.873  160.8  0.0423   76.3  0.9798  -11.7
 0.500  0.9700  -24.8   1.867  158.7  0.0469   74.7  0.9753  -12.9
 0.600  0.9646  -29.8   1.852  154.3  0.0560   71.5  0.9658  -15.4
 0.700  0.9579  -34.8   1.840  150.1  0.0649   68.3  0.9545  -17.9
 0.800  0.9512  -39.9   1.817  146.0  0.0735   65.2  0.9425  -20.3
 0.900  0.9429  -44.8   1.796  141.8  0.0819   62.1  0.9294  -22.6
 1.000  0.9356  -49.9   1.773  137.9  0.0900   59.0  0.9154  -24.9
 1.100  0.9270  -54.8   1.747  133.9  0.0977   56.1  0.9012  -27.1
 1.200  0.9189  -59.8   1.720  129.9  0.1053   53.0  0.8859  -29.4
 1.300  0.9106  -64.7   1.693  126.2  0.1125   50.0  0.8711  -31.5
 1.400  0.9008  -69.6   1.666  122.3  0.1192   47.0  0.8554  -33.6
 1.500  0.8929  -74.4   1.640  118.7  0.1257   44.2  0.8396  -35.5
 1.600  0.8845  -79.3   1.613  114.9  0.1315   41.2  0.8238  -37.5
 1.700  0.8747  -84.0   1.586  111.4  0.1373   38.4  0.8082  -39.4
 1.800  0.8653  -88.7   1.553  107.8  0.1423   35.6  0.7927  -41.1
 1.900  0.8577  -93.5   1.529  104.4  0.1473   32.8  0.7767  -43.0
 2.000  0.8475  -98.0   1.498  101.0  0.1517   30.2  0.7620  -44.6
 2.200  0.8296 -107.3   1.446   94.3  0.1597   25.0  0.7314  -48.0
 2.400  0.8127 -116.6   1.392   87.8  0.1663   19.7  0.7017  -51.3
 2.600  0.7978 -125.9   1.341   81.5  0.1710   14.6  0.6728  -54.5
 2.800  0.7834 -134.8   1.286   75.5  0.1742    9.8  0.6458  -57.4
 3.000  0.7744 -143.4   1.237   69.7  0.1764    5.1  0.6212  -60.4
 3.500  0.7607 -164.5   1.124   55.6  0.1763   -5.6  0.5635  -67.9
 4.000  0.7598  176.7   1.018   42.6  0.1715  -14.8  0.5182  -75.7
 4.500  0.7649  160.9   0.914   30.4  0.1629  -23.2  0.4841  -84.3
 5.000  0.7645  148.3   0.818   20.0  0.1504  -30.1  0.4564  -93.1
 5.500  0.7665  137.1   0.739   10.7  0.1356  -35.6  0.4308 -102.0
 6.000  0.7771  126.9   0.677    2.1  0.1207  -38.6  0.4124 -111.3
 6.500  0.7936  118.0   0.627   -6.2  0.1089  -39.7  0.4007 -121.2
 7.000  0.8073  109.7   0.582  -14.3  0.0997  -38.8  0.3907 -131.7
 7.500  0.8159  101.4   0.541  -21.9  0.0933  -36.8  0.3824 -143.5
 8.000  0.8193   92.4   0.496  -29.7  0.0890  -34.2  0.3758 -156.8
 8.500  0.8198   83.3   0.452  -36.4  0.0861  -30.7  0.3663 -172.1
 9.000  0.8413   75.5   0.414  -42.5  0.0864  -26.2  0.3728  170.7
 9.500  0.8884   69.5   0.381  -47.7  0.0904  -22.0  0.4136  154.5
10.000  0.9253   65.0   0.343  -53.1  0.0984  -19.5  0.4811  142.0
!
!  f       Fmin   Gammaopt  rn/50
! GHz       dB    MAG  ANG    -
 0.900      0.68  0.78   35   0.65
 1.800      1.42  0.60   75   0.50
 2.400      1.57  0.58   98   0.37
 3.000      2.10  0.58  128   0.24
 4.000      2.49  0.57  177   0.09
!
! (c) 2009  Infineon Technologies AG, Munich