! Infineon Technologies  Discrete & RF Semiconductors
! BFP420
!
! VCE =  3.5 V,  IC =  6.0 mA
! Common Emitter S-Parameters:                            Nov 2009
# GHz  S  MA  R  50
!  f         S11            S21            S12            S22
! GHz     MAG   ANG      MAG   ANG      MAG   ANG      MAG   ANG
 0.010  0.8116   -2.0  18.542  179.0  0.0010   37.5  0.9787    0.5
 0.020  0.8099   -2.4  18.078  178.0  0.0018   70.0  0.9819   -1.4
 0.050  0.8101   -6.2  18.053  175.0  0.0043   79.6  0.9816   -3.4
 0.100  0.8071  -12.7  18.031  170.5  0.0085   80.5  0.9768   -7.1
 0.150  0.8003  -19.0  17.840  166.0  0.0126   78.4  0.9678  -10.6
 0.200  0.7939  -25.1  17.591  161.6  0.0166   75.7  0.9555  -14.0
 0.250  0.7816  -31.3  17.220  157.1  0.0205   73.1  0.9408  -17.3
 0.300  0.7700  -37.4  16.916  152.9  0.0242   70.6  0.9230  -20.6
 0.350  0.7572  -43.3  16.514  148.9  0.0277   67.9  0.9032  -23.7
 0.400  0.7447  -48.9  16.084  144.9  0.0309   65.4  0.8818  -26.6
 0.450  0.7304  -54.5  15.637  141.1  0.0339   63.0  0.8597  -29.5
 0.500  0.7150  -59.9  15.162  137.5  0.0367   60.9  0.8363  -32.1
 0.600  0.6870  -70.2  14.229  130.6  0.0418   56.6  0.7894  -37.2
 0.700  0.6594  -79.8  13.299  124.4  0.0460   53.1  0.7433  -41.6
 0.800  0.6346  -88.6  12.386  118.7  0.0497   50.0  0.6993  -45.6
 0.900  0.6134  -97.0  11.566  113.5  0.0529   47.3  0.6581  -49.3
 1.000  0.5951 -104.9  10.802  108.9  0.0557   45.0  0.6194  -52.6
 1.100  0.5795 -112.2  10.097  104.6  0.0581   43.1  0.5843  -55.6
 1.200  0.5661 -119.1   9.454  100.5  0.0603   41.3  0.5509  -58.5
 1.300  0.5553 -125.4   8.875   96.9  0.0624   39.8  0.5213  -61.1
 1.400  0.5461 -131.4   8.350   93.3  0.0642   38.4  0.4934  -63.6
 1.500  0.5381 -136.9   7.880   90.2  0.0661   37.3  0.4678  -65.9
 1.600  0.5329 -142.2   7.441   87.0  0.0677   36.2  0.4445  -68.2
 1.700  0.5265 -147.4   7.052   84.2  0.0693   35.2  0.4224  -70.3
 1.800  0.5224 -152.0   6.679   81.4  0.0708   34.3  0.4027  -72.2
 1.900  0.5191 -156.8   6.350   78.8  0.0723   33.5  0.3829  -74.5
 2.000  0.5144 -161.0   6.048   76.3  0.0738   32.8  0.3657  -76.2
 2.200  0.5108 -169.3   5.519   71.4  0.0767   31.3  0.3324  -80.2
 2.400  0.5104 -177.1   5.060   66.9  0.0795   30.0  0.3022  -84.4
 2.600  0.5144  175.6   4.667   62.6  0.0822   28.8  0.2750  -88.7
 2.800  0.5181  169.1   4.322   58.6  0.0848   27.8  0.2505  -93.0
 3.000  0.5250  163.2   4.024   54.7  0.0875   26.6  0.2287  -97.5
 3.500  0.5489  149.3   3.419   45.4  0.0941   23.9  0.1830 -111.9
 4.000  0.5754  137.6   2.954   36.7  0.1010   21.2  0.1537 -129.5
 4.500  0.5963  128.4   2.578   28.5  0.1075   18.2  0.1417 -148.9
 5.000  0.6088  121.2   2.274   21.3  0.1138   15.4  0.1387 -166.0
 5.500  0.6230  114.1   2.040   14.4  0.1198   12.5  0.1435  177.7
 6.000  0.6429  107.5   1.856    7.6  0.1262    9.7  0.1539  162.7
 6.500  0.6644  101.5   1.703    0.6  0.1335    6.5  0.1676  150.4
 7.000  0.6809   95.6   1.576   -6.5  0.1417    3.0  0.1796  139.2
 7.500  0.6927   89.5   1.462  -13.6  0.1497   -1.4  0.1994  129.2
 8.000  0.7055   82.5   1.342  -21.0  0.1552   -6.6  0.2262  119.1
 8.500  0.7222   75.3   1.219  -27.8  0.1567  -11.3  0.2603  108.1
 9.000  0.7564   68.9   1.118  -33.7  0.1574  -14.7  0.3101   99.0
 9.500  0.8085   64.1   1.039  -39.3  0.1593  -17.6  0.3711   93.5
10.000  0.8494   60.6   0.942  -45.0  0.1622  -20.7  0.4276   90.0
!
!  f       Fmin   Gammaopt  rn/50
! GHz       dB    MAG  ANG    -
 0.900      0.70  0.16   29   0.14
 1.800      1.08  0.06  113   0.12
 2.400      1.17  0.11  132   0.13
 3.000      1.26  0.17  176   0.11
 4.000      1.43  0.31 -139   0.13
 5.000      1.82  0.38 -115   0.24
 6.000      2.30  0.43  -99   0.37
!
! (c) 2009  Infineon Technologies AG, Munich