! Infineon Technologies  Discrete & RF Semiconductors
! BFP420
!
! VCE =  3.5 V,  IC =  25 mA
! Common Emitter S-Parameters:                            Nov 2009
# GHz  S  MA  R  50
!  f         S11            S21            S12            S22
! GHz     MAG   ANG      MAG   ANG      MAG   ANG      MAG   ANG
 0.010  0.4462   -2.0  46.351  178.8  0.0013   86.9  0.9191    2.4
 0.020  0.4541   -5.4  45.048  175.9  0.0014   74.1  0.9382   -2.0
 0.050  0.4584  -14.3  44.490  170.8  0.0035   77.9  0.9405   -6.4
 0.100  0.4559  -29.7  43.367  162.3  0.0066   76.9  0.9217  -13.6
 0.150  0.4490  -43.5  41.433  154.3  0.0096   73.3  0.8872  -20.2
 0.200  0.4439  -56.4  39.191  147.0  0.0123   69.7  0.8447  -26.1
 0.250  0.4340  -68.2  36.644  140.3  0.0146   67.0  0.7989  -31.3
 0.300  0.4285  -78.9  34.308  134.4  0.0166   64.5  0.7518  -35.9
 0.350  0.4234  -88.6  31.987  129.2  0.0185   62.3  0.7066  -39.8
 0.400  0.4192  -96.9  29.797  124.4  0.0201   60.8  0.6643  -43.2
 0.450  0.4148 -104.7  27.778  120.2  0.0216   59.5  0.6253  -46.3
 0.500  0.4120 -111.6  25.924  116.4  0.0230   58.6  0.5895  -49.0
 0.600  0.4087 -123.4  22.736  109.8  0.0255   57.2  0.5279  -53.6
 0.700  0.4076 -133.3  20.122  104.3  0.0279   56.6  0.4773  -57.3
 0.800  0.4070 -141.4  17.957   99.6  0.0301   56.2  0.4356  -60.5
 0.900  0.4090 -148.4  16.178   95.5  0.0324   56.0  0.4005  -63.4
 1.000  0.4117 -154.6  14.680   91.8  0.0347   55.9  0.3701  -66.2
 1.100  0.4132 -159.9  13.405   88.6  0.0370   55.9  0.3446  -68.6
 1.200  0.4168 -164.7  12.315   85.5  0.0393   55.7  0.3213  -71.3
 1.300  0.4195 -169.1  11.379   82.8  0.0417   55.5  0.3013  -73.7
 1.400  0.4230 -173.0  10.561   80.2  0.0440   55.3  0.2835  -76.3
 1.500  0.4252 -176.7   9.854   77.8  0.0464   55.0  0.2670  -78.6
 1.600  0.4288  179.9   9.222   75.4  0.0488   54.7  0.2527  -81.0
 1.700  0.4314  176.5   8.668   73.3  0.0512   54.2  0.2390  -83.5
 1.800  0.4335  173.7   8.159   71.1  0.0537   53.7  0.2269  -85.8
 1.900  0.4378  170.7   7.706   69.1  0.0561   53.2  0.2149  -88.9
 2.000  0.4384  168.0   7.307   67.2  0.0586   52.6  0.2044  -91.0
 2.200  0.4453  162.5   6.608   63.4  0.0634   51.3  0.1845  -96.9
 2.400  0.4530  157.4   6.021   59.8  0.0682   49.9  0.1669 -103.6
 2.600  0.4633  152.6   5.524   56.2  0.0728   48.3  0.1518 -111.2
 2.800  0.4728  148.3   5.098   53.0  0.0776   46.8  0.1393 -119.3
 3.000  0.4832  144.3   4.730   49.8  0.0822   45.2  0.1293 -128.2
 3.500  0.5164  134.4   3.995   41.9  0.0933   40.8  0.1189 -154.5
 4.000  0.5470  125.8   3.439   34.3  0.1042   36.2  0.1278 -178.3
 4.500  0.5699  118.9   2.996   27.1  0.1140   31.4  0.1482  164.3
 5.000  0.5847  113.4   2.646   20.7  0.1232   26.9  0.1666  151.9
 5.500  0.6004  107.6   2.375   14.4  0.1318   22.5  0.1871  141.7
 6.000  0.6215  101.9   2.159    8.1  0.1404   18.2  0.2101  132.5
 6.500  0.6440   96.8   1.979    1.6  0.1493   13.4  0.2317  124.4
 7.000  0.6609   91.6   1.829   -5.1  0.1585    8.6  0.2480  116.4
 7.500  0.6731   86.0   1.696  -11.9  0.1672    3.1  0.2701  109.4
 8.000  0.6879   79.7   1.555  -19.0  0.1725   -2.9  0.2986  102.4
 8.500  0.7072   72.9   1.411  -25.5  0.1732   -8.3  0.3350   94.5
 9.000  0.7433   66.9   1.292  -31.0  0.1736  -12.3  0.3854   87.9
 9.500  0.7973   62.4   1.202  -36.2  0.1752  -15.9  0.4450   83.5
10.000  0.8389   59.2   1.091  -41.5  0.1773  -19.6  0.4964   80.2
!
!  f       Fmin   Gammaopt  rn/50
! GHz       dB    MAG  ANG    -
 0.900      1.38  0.22 -154   0.13
 1.800      1.65  0.29 -143   0.13
 2.400      1.81  0.26 -138   0.17
 3.000      1.83  0.34 -129   0.18
 4.000      1.97  0.45 -112   0.27
 5.000      2.40  0.49  -95   0.44
 6.000      2.85  0.54  -84   0.65
!
! (c) 2009  Infineon Technologies AG, Munich