! Infineon Technologies  Discrete & RF Semiconductors
! BFP420
!
! VCE =  3.0 V,  IC =  35 mA
! Common Emitter S-Parameters:                            Nov 2009
# GHz  S  MA  R  50
!  f         S11            S21            S12            S22
! GHz     MAG   ANG      MAG   ANG      MAG   ANG      MAG   ANG
 0.010  0.3623   -3.7  52.670  179.0  0.0013   87.2  0.9122    3.4
 0.020  0.3552   -8.0  51.514  175.8  0.0015   91.4  0.9322   -1.9
 0.050  0.3602  -19.2  50.920  169.8  0.0036   82.6  0.9370   -7.2
 0.100  0.3641  -38.6  49.271  160.1  0.0063   78.7  0.9127  -15.6
 0.150  0.3645  -55.8  46.483  151.1  0.0092   73.7  0.8685  -23.1
 0.200  0.3690  -70.6  43.318  143.2  0.0115   70.1  0.8154  -29.6
 0.250  0.3704  -84.0  39.923  136.1  0.0136   67.3  0.7608  -35.1
 0.300  0.3747  -95.4  36.856  130.0  0.0154   64.9  0.7073  -39.8
 0.350  0.3780 -105.1  33.944  124.7  0.0170   63.3  0.6578  -43.8
 0.400  0.3807 -113.4  31.301  120.0  0.0185   62.0  0.6132  -47.3
 0.450  0.3835 -120.7  28.920  115.9  0.0198   61.2  0.5730  -50.2
 0.500  0.3860 -127.1  26.795  112.3  0.0211   60.5  0.5371  -52.8
 0.600  0.3913 -137.8  23.230  105.9  0.0235   59.9  0.4770  -57.1
 0.700  0.3972 -146.2  20.392  100.8  0.0259   59.6  0.4289  -60.7
 0.800  0.4009 -153.3  18.091   96.4  0.0283   59.7  0.3900  -63.8
 0.900  0.4060 -159.2  16.228   92.5  0.0307   59.6  0.3577  -66.6
 1.000  0.4113 -164.4  14.673   89.1  0.0331   59.5  0.3299  -69.5
 1.100  0.4155 -168.9  13.362   86.1  0.0355   59.5  0.3068  -72.0
 1.200  0.4201 -173.0  12.252   83.2  0.0380   59.3  0.2856  -74.9
 1.300  0.4242 -176.7  11.300   80.6  0.0405   59.0  0.2677  -77.3
 1.400  0.4286  179.8  10.477   78.1  0.0430   58.7  0.2516  -80.1
 1.500  0.4312  176.8   9.762   75.9  0.0455   58.3  0.2368  -82.7
 1.600  0.4356  174.0   9.128   73.7  0.0481   57.9  0.2242  -85.4
 1.700  0.4388  170.9   8.573   71.6  0.0507   57.3  0.2118  -88.2
 1.800  0.4411  168.4   8.066   69.5  0.0532   56.8  0.2011  -90.7
 1.900  0.4461  165.6   7.615   67.6  0.0557   56.1  0.1906  -94.1
 2.000  0.4470  163.2   7.216   65.8  0.0584   55.4  0.1812  -96.6
 2.200  0.4540  158.2   6.521   62.0  0.0634   53.9  0.1639 -103.2
 2.400  0.4614  153.6   5.941   58.6  0.0684   52.3  0.1492 -110.9
 2.600  0.4729  149.2   5.448   55.2  0.0732   50.6  0.1371 -119.6
 2.800  0.4821  145.3   5.027   52.0  0.0781   48.9  0.1278 -128.9
 3.000  0.4933  141.5   4.664   48.8  0.0830   47.1  0.1213 -138.6
 3.500  0.5259  132.3   3.937   41.1  0.0944   42.3  0.1203 -165.4
 4.000  0.5558  124.1   3.388   33.6  0.1056   37.5  0.1363  173.0
 4.500  0.5789  117.5   2.952   26.5  0.1156   32.5  0.1600  158.0
 5.000  0.5924  112.2   2.607   20.1  0.1250   27.8  0.1802  147.1
 5.500  0.6081  106.6   2.339   13.9  0.1338   23.3  0.2017  137.9
 6.000  0.6290  101.1   2.127    7.7  0.1426   18.8  0.2255  129.6
 6.500  0.6513   96.0   1.950    1.1  0.1515   13.9  0.2476  122.0
 7.000  0.6680   90.8   1.803   -5.5  0.1609    9.0  0.2642  114.3
 7.500  0.6797   85.3   1.671  -12.3  0.1695    3.4  0.2862  107.6
 8.000  0.6935   79.1   1.532  -19.3  0.1747   -2.7  0.3145  100.9
 8.500  0.7131   72.4   1.389  -25.7  0.1753   -8.2  0.3505   93.3
 9.000  0.7490   66.4   1.271  -31.2  0.1756  -12.2  0.4005   86.9
 9.500  0.8024   62.0   1.183  -36.4  0.1772  -15.8  0.4597   82.6
10.000  0.8432   58.8   1.073  -41.6  0.1790  -19.6  0.5104   79.3
!
!  f       Fmin   Gammaopt  rn/50
! GHz       dB    MAG  ANG    -
 0.900      1.64  0.30 -155   0.13
 1.800      1.90  0.37 -142   0.15
 2.400      2.10  0.34 -134   0.19
 3.000      2.11  0.40 -126   0.22
 4.000      2.25  0.50 -110   0.35
 5.000      2.73  0.54  -94   0.59
 6.000      3.16  0.59  -82   0.84
!
! (c) 2009  Infineon Technologies AG, Munich