! Infineon Technologies  Discrete & RF Semiconductors
! BFP420
!
! VCE =  3.0 V,  IC =  15 mA
! Common Emitter S-Parameters:                            Nov 2009
# GHz  S  MA  R  50
!  f         S11            S21            S12            S22
! GHz     MAG   ANG      MAG   ANG      MAG   ANG      MAG   ANG
 0.010  0.5961   -2.8  35.622  179.0  0.0010   88.3  0.9528    1.3
 0.020  0.6093   -4.4  34.698  176.7  0.0016   77.8  0.9645   -2.0
 0.050  0.6066  -10.9  34.452  172.3  0.0038   82.9  0.9639   -5.6
 0.100  0.6031  -22.0  33.937  165.3  0.0077   79.8  0.9504  -11.7
 0.150  0.5924  -32.8  32.891  158.4  0.0111   75.9  0.9263  -17.3
 0.200  0.5809  -42.9  31.652  152.0  0.0145   72.2  0.8948  -22.6
 0.250  0.5645  -52.6  30.133  145.9  0.0174   68.6  0.8593  -27.5
 0.300  0.5516  -61.7  28.712  140.3  0.0200   65.4  0.8205  -32.0
 0.350  0.5380  -70.3  27.202  135.3  0.0224   63.0  0.7815  -36.0
 0.400  0.5244  -78.1  25.713  130.6  0.0245   60.7  0.7432  -39.6
 0.450  0.5122  -85.5  24.284  126.3  0.0264   58.6  0.7064  -42.9
 0.500  0.5018  -92.3  22.915  122.4  0.0280   57.1  0.6712  -45.9
 0.600  0.4841 -104.6  20.467  115.3  0.0311   54.4  0.6078  -51.2
 0.700  0.4706 -115.3  18.354  109.5  0.0336   52.7  0.5533  -55.5
 0.800  0.4614 -124.3  16.539  104.4  0.0360   51.4  0.5068  -59.3
 0.900  0.4544 -132.4  15.014   99.8  0.0382   50.5  0.4668  -62.6
 1.000  0.4511 -139.7  13.704   95.9  0.0404   49.9  0.4317  -65.8
 1.100  0.4483 -146.0  12.566   92.3  0.0425   49.4  0.4017  -68.6
 1.200  0.4479 -151.7  11.584   88.9  0.0446   49.1  0.3743  -71.6
 1.300  0.4472 -156.9  10.737   85.9  0.0468   48.7  0.3509  -74.1
 1.400  0.4481 -161.8   9.988   83.1  0.0489   48.4  0.3297  -76.8
 1.500  0.4481 -166.1   9.337   80.5  0.0511   48.1  0.3103  -79.3
 1.600  0.4502 -169.9   8.750   77.9  0.0532   47.8  0.2934  -81.8
 1.700  0.4507 -174.0   8.235   75.6  0.0554   47.4  0.2773  -84.3
 1.800  0.4521 -177.5   7.759   73.3  0.0575   47.0  0.2632  -86.7
 1.900  0.4552  178.9   7.335   71.2  0.0598   46.6  0.2492  -89.6
 2.000  0.4547  175.8   6.960   69.1  0.0620   46.2  0.2370  -91.8
 2.200  0.4594  169.4   6.303   65.0  0.0664   45.1  0.2140  -97.4
 2.400  0.4662  163.6   5.750   61.2  0.0707   43.9  0.1936 -103.7
 2.600  0.4756  158.2   5.280   57.5  0.0750   42.7  0.1762 -110.7
 2.800  0.4828  153.3   4.872   54.1  0.0793   41.5  0.1615 -118.2
 3.000  0.4945  148.8   4.525   50.7  0.0837   40.1  0.1495 -126.1
 3.500  0.5254  137.9   3.823   42.4  0.0941   36.3  0.1335 -150.2
 4.000  0.5550  128.5   3.293   34.6  0.1042   32.2  0.1372 -173.2
 4.500  0.5779  121.0   2.869   27.2  0.1135   27.8  0.1539  168.9
 5.000  0.5914  115.1   2.532   20.6  0.1223   23.7  0.1699  156.0
 5.500  0.6075  109.1   2.271   14.1  0.1304   19.7  0.1886  145.2
 6.000  0.6278  103.2   2.064    7.8  0.1387   15.7  0.2103  135.5
 6.500  0.6503   97.8   1.893    1.1  0.1473   11.2  0.2310  127.1
 7.000  0.6668   92.4   1.750   -5.6  0.1564    6.6  0.2469  118.8
 7.500  0.6788   86.8   1.623  -12.5  0.1648    1.4  0.2688  111.6
 8.000  0.6927   80.3   1.488  -19.7  0.1702   -4.5  0.2971  104.3
 8.500  0.7115   73.3   1.350  -26.2  0.1709   -9.8  0.3328   96.1
 9.000  0.7470   67.2   1.236  -31.7  0.1713  -13.7  0.3826   89.2
 9.500  0.8003   62.7   1.149  -37.0  0.1729  -17.1  0.4420   84.7
10.000  0.8411   59.5   1.042  -42.4  0.1749  -20.7  0.4937   81.4
!
!  f       Fmin   Gammaopt  rn/50
! GHz       dB    MAG  ANG    -
 0.900      1.06  0.09 -152   0.13
 1.800      1.36  0.18 -147   0.12
 2.400      1.49  0.17 -148   0.14
 3.000      1.53  0.25 -138   0.14
 4.000      1.67  0.38 -119   0.20
 5.000      2.14  0.44 -103   0.32
 6.000      2.48  0.50  -88   0.47
!
! (c) 2009  Infineon Technologies AG, Munich