! Infineon Technologies  Discrete & RF Semiconductors
! BFP420
!
! VCE =  3.5 V,  IC =  35 mA
! Common Emitter S-Parameters:                            Nov 2009
# GHz  S  MA  R  50
!  f         S11            S21            S12            S22
! GHz     MAG   ANG      MAG   ANG      MAG   ANG      MAG   ANG
 0.010  0.3610   -4.0  52.454  178.9  0.0015   95.3  0.9033    3.3
 0.020  0.3542   -6.9  51.225  175.7  0.0015   93.3  0.9259   -1.8
 0.050  0.3577  -18.5  50.560  169.9  0.0032   80.8  0.9313   -6.9
 0.100  0.3614  -37.4  48.944  160.4  0.0062   76.5  0.9086  -15.0
 0.150  0.3622  -54.1  46.264  151.6  0.0088   73.4  0.8669  -22.2
 0.200  0.3668  -68.8  43.223  143.8  0.0112   69.9  0.8162  -28.5
 0.250  0.3667  -82.1  39.930  136.7  0.0132   67.1  0.7638  -33.8
 0.300  0.3700  -93.5  36.945  130.7  0.0150   64.9  0.7117  -38.4
 0.350  0.3729 -103.2  34.088  125.5  0.0167   63.3  0.6634  -42.2
 0.400  0.3743 -111.6  31.487  120.7  0.0181   62.1  0.6198  -45.6
 0.450  0.3776 -119.0  29.136  116.6  0.0194   61.2  0.5800  -48.4
 0.500  0.3805 -125.4  27.021  113.0  0.0207   60.7  0.5446  -50.9
 0.600  0.3851 -136.2  23.471  106.6  0.0232   60.1  0.4851  -55.0
 0.700  0.3907 -144.9  20.634  101.4  0.0255   59.8  0.4374  -58.4
 0.800  0.3945 -151.9  18.317   97.0  0.0278   59.8  0.3984  -61.4
 0.900  0.3990 -158.0  16.442   93.1  0.0302   59.7  0.3663  -64.1
 1.000  0.4044 -163.4  14.876   89.6  0.0326   59.7  0.3384  -66.7
 1.100  0.4083 -167.9  13.558   86.6  0.0350   59.7  0.3152  -69.0
 1.200  0.4132 -172.1  12.436   83.6  0.0375   59.5  0.2938  -71.7
 1.300  0.4165 -175.9  11.472   81.1  0.0399   59.2  0.2758  -74.0
 1.400  0.4214 -179.4  10.641   78.6  0.0424   58.9  0.2594  -76.5
 1.500  0.4236  177.4   9.917   76.3  0.0449   58.5  0.2443  -78.9
 1.600  0.4283  174.6   9.274   74.1  0.0474   58.1  0.2314  -81.3
 1.700  0.4313  171.5   8.713   72.0  0.0500   57.5  0.2187  -83.9
 1.800  0.4341  169.0   8.196   69.9  0.0525   57.0  0.2077  -86.2
 1.900  0.4389  166.2   7.739   68.0  0.0550   56.4  0.1967  -89.3
 2.000  0.4400  163.8   7.335   66.1  0.0576   55.7  0.1870  -91.5
 2.200  0.4464  158.8   6.629   62.4  0.0626   54.2  0.1687  -97.6
 2.400  0.4546  154.1   6.042   58.9  0.0675   52.5  0.1526 -104.7
 2.600  0.4658  149.6   5.540   55.5  0.0724   50.9  0.1389 -112.8
 2.800  0.4755  145.6   5.112   52.3  0.0772   49.2  0.1278 -121.5
 3.000  0.4863  141.8   4.744   49.2  0.0820   47.4  0.1193 -130.9
 3.500  0.5187  132.6   4.005   41.4  0.0934   42.7  0.1128 -158.5
 4.000  0.5493  124.3   3.447   33.9  0.1045   37.8  0.1251  177.8
 4.500  0.5728  117.7   3.004   26.8  0.1145   32.8  0.1475  161.3
 5.000  0.5869  112.4   2.654   20.5  0.1239   28.2  0.1672  149.5
 5.500  0.6033  106.8   2.382   14.2  0.1327   23.7  0.1885  139.7
 6.000  0.6242  101.2   2.166    7.9  0.1414   19.2  0.2121  130.9
 6.500  0.6463   96.1   1.985    1.4  0.1503   14.4  0.2341  123.1
 7.000  0.6632   91.0   1.836   -5.2  0.1596    9.5  0.2507  115.2
 7.500  0.6757   85.5   1.702  -12.0  0.1683    3.9  0.2728  108.3
 8.000  0.6896   79.3   1.560  -19.0  0.1737   -2.3  0.3014  101.5
 8.500  0.7093   72.6   1.416  -25.4  0.1744   -7.7  0.3379   93.8
 9.000  0.7459   66.6   1.296  -30.9  0.1747  -11.8  0.3884   87.3
 9.500  0.7988   62.2   1.207  -36.1  0.1764  -15.3  0.4480   83.0
10.000  0.8406   59.0   1.094  -41.4  0.1783  -19.1  0.4993   79.7
!
!  f       Fmin   Gammaopt  rn/50
! GHz       dB    MAG  ANG    -
 0.900      1.64  0.30 -155   0.13
 1.800      1.90  0.37 -142   0.15
 2.400      2.10  0.34 -134   0.19
 3.000      2.11  0.40 -126   0.22
 4.000      2.25  0.50 -110   0.35
 5.000      2.73  0.54  -94   0.59
 6.000      3.16  0.59  -82   0.84
!
! (c) 2009  Infineon Technologies AG, Munich