! Infineon Technologies  Discrete & RF Semiconductors
! BFP420
!
! VCE =  3.0 V,  IC =  1.0 mA
! Common Emitter S-Parameters:                            Nov 2009
# GHz  S  MA  R  50
!  f         S11            S21            S12            S22
! GHz     MAG   ANG      MAG   ANG      MAG   ANG      MAG   ANG
 0.010  0.9660   -1.5   3.654  179.4  0.0008   76.2  0.9981   -0.1
 0.020  0.9631   -1.2   3.536  179.4  0.0019   91.5  0.9973   -0.6
 0.050  0.9636   -2.6   3.553  177.6  0.0049   86.9  0.9975   -1.5
 0.100  0.9618   -6.0   3.582  175.3  0.0096   86.7  0.9968   -3.2
 0.150  0.9619   -8.8   3.583  172.9  0.0144   84.7  0.9951   -4.8
 0.200  0.9622  -11.7   3.581  170.5  0.0193   82.9  0.9927   -6.4
 0.250  0.9598  -14.6   3.564  167.9  0.0240   81.3  0.9897   -8.0
 0.300  0.9571  -17.5   3.565  165.7  0.0288   79.6  0.9858   -9.6
 0.350  0.9544  -20.5   3.559  163.3  0.0335   77.8  0.9815  -11.1
 0.400  0.9518  -23.4   3.537  160.9  0.0382   75.9  0.9765  -12.7
 0.450  0.9486  -26.4   3.526  158.5  0.0428   74.2  0.9710  -14.2
 0.500  0.9440  -29.3   3.505  156.1  0.0474   72.5  0.9645  -15.7
 0.600  0.9349  -35.2   3.459  151.4  0.0563   68.9  0.9510  -18.8
 0.700  0.9253  -41.1   3.411  146.8  0.0649   65.3  0.9352  -21.7
 0.800  0.9146  -46.8   3.342  142.3  0.0731   61.9  0.9181  -24.6
 0.900  0.9031  -52.5   3.278  137.9  0.0808   58.5  0.8999  -27.3
 1.000  0.8908  -58.2   3.210  133.7  0.0882   55.3  0.8806  -30.0
 1.100  0.8797  -63.7   3.136  129.5  0.0951   52.1  0.8613  -32.5
 1.200  0.8674  -69.4   3.064  125.3  0.1017   48.9  0.8405  -35.1
 1.300  0.8554  -74.8   2.986  121.4  0.1077   45.9  0.8205  -37.5
 1.400  0.8431  -80.3   2.913  117.5  0.1133   42.8  0.7999  -39.9
 1.500  0.8319  -85.5   2.843  113.9  0.1185   40.0  0.7794  -42.1
 1.600  0.8210  -90.7   2.770  110.1  0.1230   37.1  0.7590  -44.2
 1.700  0.8086  -95.8   2.700  106.5  0.1275   34.4  0.7394  -46.3
 1.800  0.7981 -100.8   2.623  103.0  0.1312   31.7  0.7202  -48.2
 1.900  0.7882 -106.0   2.560   99.6  0.1349   29.0  0.7003  -50.3
 2.000  0.7766 -110.6   2.487   96.4  0.1379   26.6  0.6824  -52.0
 2.200  0.7572 -120.3   2.364   89.9  0.1433   21.7  0.6458  -55.5
 2.400  0.7387 -129.8   2.240   83.8  0.1475   17.0  0.6108  -59.0
 2.600  0.7266 -139.2   2.127   77.9  0.1501   12.5  0.5775  -62.3
 2.800  0.7133 -147.9   2.015   72.3  0.1515    8.4  0.5470  -65.3
 3.000  0.7065 -156.4   1.917   66.9  0.1521    4.5  0.5192  -68.3
 3.500  0.6994 -176.6   1.698   54.0  0.1503   -4.2  0.4567  -76.1
 4.000  0.7056  166.0   1.510   42.2  0.1457  -11.2  0.4079  -84.2
 4.500  0.7142  151.9   1.338   31.1  0.1388  -17.3  0.3720  -93.3
 5.000  0.7179  140.7   1.189   21.6  0.1302  -21.8  0.3447 -102.4
 5.500  0.7235  130.6   1.069   12.9  0.1207  -24.8  0.3218 -111.7
 6.000  0.7375  121.4   0.976    4.7  0.1123  -25.8  0.3054 -121.9
 6.500  0.7550  113.3   0.902   -3.4  0.1070  -25.6  0.2953 -132.7
 7.000  0.7694  105.7   0.837  -11.4  0.1046  -24.5  0.2874 -144.0
 7.500  0.7791   98.0   0.777  -19.2  0.1047  -23.5  0.2832 -156.8
 8.000  0.7860   89.6   0.713  -27.2  0.1056  -23.5  0.2827 -171.4
 8.500  0.7906   81.0   0.649  -34.4  0.1057  -23.5  0.2831  172.2
 9.000  0.8156   73.7   0.596  -40.8  0.1068  -22.6  0.3031  154.3
 9.500  0.8648   68.0   0.550  -46.6  0.1101  -21.5  0.3560  139.5
10.000  0.9028   63.9   0.494  -52.7  0.1163  -21.3  0.4266  129.3
!
!  f       Fmin   Gammaopt  rn/50
! GHz       dB    MAG  ANG    -
 0.900      0.53  0.67   34   0.35
 1.800      1.15  0.44   77   0.27
 2.400      1.28  0.44  100   0.22
 3.000      1.61  0.45  131   0.15
 4.000      1.90  0.47 -177   0.09
 5.000      2.32  0.44 -133   0.45
 6.000      3.43  0.60 -118   0.25
!
! (c) 2009  Infineon Technologies AG, Munich