! Infineon Technologies  Discrete & RF Semiconductors
! BFP420
!
! VCE =  3.5 V,  IC =  3.0 mA
! Common Emitter S-Parameters:                            Nov 2009
# GHz  S  MA  R  50
!  f         S11            S21            S12            S22
! GHz     MAG   ANG      MAG   ANG      MAG   ANG      MAG   ANG
 0.010  0.9043   -1.4  10.398  179.1  0.0005   61.3  0.9909    0.2
 0.020  0.8982   -1.7  10.131  178.7  0.0020   76.3  0.9913   -0.9
 0.050  0.8990   -4.5  10.156  176.5  0.0046   82.3  0.9913   -2.4
 0.100  0.8975   -8.9  10.194  173.2  0.0089   83.0  0.9895   -4.9
 0.150  0.8928  -13.4  10.156  169.8  0.0134   81.5  0.9851   -7.4
 0.200  0.8905  -17.8  10.096  166.4  0.0178   79.5  0.9795   -9.8
 0.250  0.8833  -22.2   9.990  162.9  0.0222   77.1  0.9723  -12.2
 0.300  0.8778  -26.7   9.921  159.8  0.0263   75.0  0.9633  -14.6
 0.350  0.8700  -31.0   9.812  156.6  0.0305   72.7  0.9532  -17.0
 0.400  0.8621  -35.3   9.682  153.3  0.0344   70.4  0.9414  -19.3
 0.450  0.8526  -39.6   9.547  150.2  0.0383   68.3  0.9292  -21.5
 0.500  0.8435  -43.8   9.390  147.0  0.0420   66.1  0.9152  -23.7
 0.600  0.8218  -52.2   9.072  141.0  0.0488   61.9  0.8863  -28.0
 0.700  0.8000  -60.1   8.723  135.3  0.0551   57.9  0.8544  -31.9
 0.800  0.7785  -67.8   8.340  129.9  0.0606   54.3  0.8219  -35.6
 0.900  0.7572  -75.2   7.975  124.8  0.0655   50.9  0.7891  -39.1
 1.000  0.7368  -82.5   7.615  120.1  0.0701   47.7  0.7564  -42.4
 1.100  0.7188  -89.3   7.259  115.6  0.0740   44.8  0.7251  -45.4
 1.200  0.7000  -96.0   6.920  111.2  0.0775   42.1  0.6936  -48.4
 1.300  0.6843 -102.2   6.598  107.3  0.0805   39.6  0.6644  -51.1
 1.400  0.6698 -108.5   6.294  103.3  0.0832   37.2  0.6361  -53.6
 1.500  0.6568 -114.2   6.013   99.8  0.0858   35.1  0.6091  -56.0
 1.600  0.6454 -119.8   5.743   96.3  0.0878   33.0  0.5837  -58.2
 1.700  0.6333 -125.4   5.497   93.0  0.0898   31.2  0.5595  -60.4
 1.800  0.6242 -130.4   5.245   89.8  0.0914   29.4  0.5370  -62.4
 1.900  0.6153 -135.6   5.028   86.8  0.0930   27.7  0.5145  -64.5
 2.000  0.6064 -140.2   4.820   83.9  0.0944   26.2  0.4948  -66.2
 2.200  0.5935 -149.7   4.450   78.3  0.0968   23.4  0.4557  -69.9
 2.400  0.5846 -158.6   4.119   73.1  0.0987   20.7  0.4197  -73.4
 2.600  0.5812 -167.2   3.828   68.2  0.1002   18.4  0.3870  -77.0
 2.800  0.5778 -175.0   3.564   63.6  0.1014   16.5  0.3575  -80.3
 3.000  0.5797  177.8   3.336   59.2  0.1024   14.6  0.3308  -83.6
 3.500  0.5926  161.2   2.862   48.6  0.1044   10.9  0.2724  -93.2
 4.000  0.6124  147.3   2.489   38.9  0.1066    8.0  0.2288 -104.3
 4.500  0.6304  136.3   2.179   29.8  0.1086    5.3  0.1992 -117.3
 5.000  0.6407  127.7   1.924   21.9  0.1106    3.4  0.1798 -129.8
 5.500  0.6516  119.7   1.725   14.4  0.1126    1.7  0.1671 -143.5
 6.000  0.6693  112.1   1.571    7.1  0.1156    0.4  0.1613 -158.5
 6.500  0.6901  105.4   1.445   -0.3  0.1205   -1.2  0.1616 -173.3
 7.000  0.7064   99.0   1.338   -7.7  0.1266   -3.2  0.1639  173.2
 7.500  0.7176   92.4   1.240  -15.1  0.1335   -6.1  0.1749  159.5
 8.000  0.7290   84.9   1.139  -22.8  0.1387  -10.1  0.1932  145.1
 8.500  0.7421   77.3   1.035  -29.8  0.1403  -13.9  0.2185  129.6
 9.000  0.7728   70.5   0.951  -36.0  0.1415  -16.4  0.2634  116.1
 9.500  0.8247   65.5   0.882  -41.9  0.1438  -18.5  0.3258  107.8
10.000  0.8648   61.8   0.799  -48.0  0.1476  -20.8  0.3892  102.9
!
!  f       Fmin   Gammaopt  rn/50
! GHz       dB    MAG  ANG    -
 0.900      0.57  0.35   33   0.18
 1.800      1.02  0.20   79   0.14
 2.400      1.10  0.23  104   0.14
 3.000      1.25  0.24  144   0.11
 4.000      1.46  0.33 -159   0.10
 5.000      1.90  0.39 -128   0.22
 6.000      2.46  0.48 -107   0.35
!
! (c) 2009  Infineon Technologies AG, Munich