! Infineon Technologies  Discrete & RF Semiconductors
! BFP420
!
! VCE =  3.0 V,  IC =  0.5 mA
! Common Emitter S-Parameters:                            Nov 2009
# GHz  S  MA  R  50
!  f         S11            S21            S12            S22
! GHz     MAG   ANG      MAG   ANG      MAG   ANG      MAG   ANG
 0.010  0.9904   -1.6   1.984  179.4  0.0006   98.5  0.9991   -0.1
 0.020  0.9810   -0.9   1.929  179.5  0.0019   90.8  0.9983   -0.5
 0.050  0.9802   -2.5   1.941  178.0  0.0047   88.1  0.9987   -1.3
 0.100  0.9822   -4.9   1.952  175.8  0.0097   86.9  0.9980   -2.7
 0.150  0.9795   -7.5   1.956  173.7  0.0145   85.5  0.9967   -4.1
 0.200  0.9794  -10.0   1.955  171.5  0.0194   83.9  0.9948   -5.5
 0.250  0.9776  -12.5   1.947  169.1  0.0242   82.5  0.9926   -6.8
 0.300  0.9763  -15.0   1.953  167.0  0.0291   80.8  0.9894   -8.2
 0.350  0.9742  -17.6   1.950  164.9  0.0340   79.1  0.9863   -9.5
 0.400  0.9717  -20.1   1.943  162.7  0.0387   77.6  0.9822  -10.8
 0.450  0.9697  -22.6   1.940  160.5  0.0435   76.0  0.9785  -12.1
 0.500  0.9679  -25.2   1.933  158.3  0.0483   74.4  0.9734  -13.4
 0.600  0.9629  -30.3   1.918  153.9  0.0576   71.2  0.9630  -16.1
 0.700  0.9558  -35.3   1.904  149.7  0.0668   67.9  0.9513  -18.6
 0.800  0.9478  -40.4   1.877  145.5  0.0756   64.8  0.9380  -21.0
 0.900  0.9397  -45.5   1.856  141.3  0.0841   61.6  0.9243  -23.4
 1.000  0.9318  -50.5   1.830  137.3  0.0925   58.5  0.9096  -25.8
 1.100  0.9236  -55.5   1.800  133.3  0.1003   55.5  0.8943  -28.0
 1.200  0.9150  -60.5   1.772  129.3  0.1080   52.4  0.8782  -30.3
 1.300  0.9059  -65.5   1.743  125.5  0.1152   49.4  0.8628  -32.5
 1.400  0.8968  -70.5   1.715  121.6  0.1220   46.3  0.8462  -34.6
 1.500  0.8880  -75.3   1.684  118.1  0.1286   43.5  0.8297  -36.6
 1.600  0.8800  -80.2   1.655  114.2  0.1344   40.5  0.8132  -38.6
 1.700  0.8691  -85.0   1.627  110.7  0.1402   37.7  0.7970  -40.5
 1.800  0.8606  -89.7   1.592  107.1  0.1453   34.9  0.7812  -42.3
 1.900  0.8524  -94.6   1.567  103.6  0.1503   32.1  0.7645  -44.2
 2.000  0.8425  -99.0   1.533  100.3  0.1546   29.5  0.7495  -45.9
 2.200  0.8243 -108.4   1.478   93.6  0.1625   24.2  0.7179  -49.3
 2.400  0.8076 -117.7   1.422   87.1  0.1690   18.9  0.6877  -52.6
 2.600  0.7928 -127.1   1.367   80.8  0.1736   13.8  0.6585  -55.8
 2.800  0.7785 -136.0   1.309   74.8  0.1767    9.1  0.6309  -58.8
 3.000  0.7695 -144.5   1.259   69.0  0.1786    4.4  0.6058  -61.8
 3.500  0.7560 -165.6   1.141   55.0  0.1783   -6.2  0.5477  -69.4
 4.000  0.7563  175.7   1.034   42.1  0.1733  -15.3  0.5023  -77.4
 4.500  0.7617  160.1   0.927   29.9  0.1644  -23.6  0.4683  -86.2
 5.000  0.7619  147.6   0.829   19.6  0.1520  -30.5  0.4415  -95.1
 5.500  0.7641  136.5   0.749   10.3  0.1371  -35.8  0.4167 -104.1
 6.000  0.7750  126.4   0.685    1.7  0.1223  -38.8  0.3991 -113.7
 6.500  0.7921  117.5   0.635   -6.6  0.1106  -39.9  0.3884 -123.8
 7.000  0.8056  109.4   0.589  -14.6  0.1015  -39.2  0.3796 -134.5
 7.500  0.8148  101.1   0.547  -22.2  0.0952  -37.2  0.3726 -146.5
 8.000  0.8178   92.1   0.502  -30.0  0.0908  -34.9  0.3677 -160.1
 8.500  0.8186   83.1   0.457  -36.8  0.0878  -31.6  0.3608 -175.5
 9.000  0.8406   75.3   0.419  -42.8  0.0878  -27.3  0.3704  167.3
 9.500  0.8878   69.3   0.386  -48.0  0.0916  -23.2  0.4143  151.5
10.000  0.9243   64.9   0.347  -53.5  0.0993  -20.8  0.4833  139.4
!
!  f       Fmin   Gammaopt  rn/50
! GHz       dB    MAG  ANG    -
 0.900      0.68  0.78   35   0.65
 1.800      1.42  0.60   75   0.50
 2.400      1.57  0.58   98   0.37
 3.000      2.10  0.58  128   0.24
 4.000      2.49  0.57  177   0.09
!
! (c) 2009  Infineon Technologies AG, Munich