! Infineon Technologies  Discrete & RF Semiconductors
! BFP420
!
! VCE =  3.5 V,  IC =  1.0 mA
! Common Emitter S-Parameters:                            Nov 2009
# GHz  S  MA  R  50
!  f         S11            S21            S12            S22
! GHz     MAG   ANG      MAG   ANG      MAG   ANG      MAG   ANG
 0.010  0.9705   -1.6   3.795  179.4  0.0004  111.6  0.9978   -0.1
 0.020  0.9669   -1.3   3.674  179.3  0.0019   82.5  0.9970   -0.6
 0.050  0.9639   -2.8   3.706  177.6  0.0047   87.2  0.9975   -1.5
 0.100  0.9633   -6.0   3.721  175.3  0.0094   86.0  0.9969   -3.1
 0.150  0.9622   -8.8   3.729  172.9  0.0140   84.7  0.9948   -4.7
 0.200  0.9638  -11.7   3.725  170.6  0.0187   82.8  0.9926   -6.3
 0.250  0.9604  -14.7   3.706  168.0  0.0232   81.1  0.9898   -7.8
 0.300  0.9579  -17.7   3.708  165.7  0.0279   79.4  0.9862   -9.4
 0.350  0.9545  -20.6   3.700  163.4  0.0325   77.7  0.9819  -10.9
 0.400  0.9524  -23.5   3.681  161.0  0.0370   76.0  0.9768  -12.4
 0.450  0.9485  -26.5   3.666  158.6  0.0415   74.2  0.9716  -14.0
 0.500  0.9443  -29.4   3.645  156.2  0.0459   72.4  0.9655  -15.5
 0.600  0.9356  -35.3   3.597  151.5  0.0546   68.9  0.9522  -18.5
 0.700  0.9251  -41.2   3.548  146.9  0.0628   65.4  0.9368  -21.4
 0.800  0.9143  -46.9   3.477  142.4  0.0708   62.0  0.9203  -24.2
 0.900  0.9019  -52.7   3.409  138.0  0.0783   58.6  0.9024  -26.9
 1.000  0.8908  -58.4   3.339  133.7  0.0855   55.4  0.8836  -29.6
 1.100  0.8783  -64.0   3.262  129.6  0.0921   52.3  0.8644  -32.0
 1.200  0.8653  -69.6   3.185  125.4  0.0985   49.1  0.8440  -34.6
 1.300  0.8541  -75.0   3.106  121.6  0.1043   46.1  0.8243  -37.0
 1.400  0.8415  -80.5   3.031  117.6  0.1097   43.1  0.8038  -39.3
 1.500  0.8298  -85.7   2.954  114.0  0.1148   40.2  0.7838  -41.5
 1.600  0.8187  -91.0   2.880  110.2  0.1191   37.4  0.7633  -43.6
 1.700  0.8062  -96.2   2.807  106.7  0.1235   34.7  0.7440  -45.6
 1.800  0.7953 -101.1   2.723  103.1  0.1271   32.0  0.7249  -47.6
 1.900  0.7848 -106.2   2.658   99.7  0.1306   29.4  0.7049  -49.6
 2.000  0.7739 -110.9   2.583   96.5  0.1336   27.0  0.6872  -51.3
 2.200  0.7537 -120.6   2.453   90.1  0.1388   22.2  0.6506  -54.8
 2.400  0.7367 -130.0   2.325   83.9  0.1428   17.5  0.6157  -58.2
 2.600  0.7226 -139.4   2.205   78.1  0.1453   13.1  0.5825  -61.4
 2.800  0.7098 -148.2   2.088   72.5  0.1467    9.0  0.5519  -64.5
 3.000  0.7029 -156.6   1.985   67.2  0.1472    5.2  0.5238  -67.4
 3.500  0.6955 -176.9   1.757   54.4  0.1455   -3.3  0.4611  -75.0
 4.000  0.7018  165.9   1.561   42.6  0.1412  -10.2  0.4121  -83.0
 4.500  0.7106  151.7   1.384   31.6  0.1348  -16.0  0.3754  -91.9
 5.000  0.7141  140.5   1.227   22.1  0.1267  -20.3  0.3476 -100.7
 5.500  0.7200  130.5   1.106   13.4  0.1179  -23.2  0.3237 -109.9
 6.000  0.7332  121.3   1.009    5.3  0.1100  -24.0  0.3063 -119.8
 6.500  0.7515  113.1   0.932   -2.8  0.1054  -23.6  0.2950 -130.4
 7.000  0.7662  105.6   0.864  -10.9  0.1036  -22.5  0.2860 -141.5
 7.500  0.7765   98.0   0.802  -18.6  0.1042  -21.6  0.2804 -154.2
 8.000  0.7826   89.6   0.737  -26.6  0.1056  -21.7  0.2780 -168.7
 8.500  0.7882   81.0   0.670  -33.8  0.1061  -21.9  0.2765  174.7
 9.000  0.8136   73.7   0.615  -40.3  0.1075  -21.2  0.2944  156.3
 9.500  0.8624   68.0   0.568  -46.2  0.1109  -20.3  0.3456  141.0
10.000  0.9012   63.9   0.511  -52.4  0.1172  -20.2  0.4155  130.6
!
!  f       Fmin   Gammaopt  rn/50
! GHz       dB    MAG  ANG    -
 0.900      0.53  0.67   34   0.35
 1.800      1.15  0.44   77   0.27
 2.400      1.28  0.44  100   0.22
 3.000      1.61  0.45  131   0.15
 4.000      1.90  0.47 -177   0.09
 5.000      2.32  0.44 -133   0.45
 6.000      3.43  0.60 -118   0.25
!
! (c) 2009  Infineon Technologies AG, Munich