! Infineon Technologies  Discrete & RF Semiconductors
! BFP420
!
! VCE =  3.0 V,  IC =  9.0 mA
! Common Emitter S-Parameters:                            Nov 2009
# GHz  S  MA  R  50
!  f         S11            S21            S12            S22
! GHz     MAG   ANG      MAG   ANG      MAG   ANG      MAG   ANG
 0.010  0.7388   -1.5  25.341  178.9  0.0012   60.1  0.9708    0.8
 0.020  0.7332   -3.1  24.681  177.5  0.0017   78.9  0.9775   -1.7
 0.050  0.7305   -8.0  24.608  173.9  0.0040   82.9  0.9769   -4.4
 0.100  0.7272  -16.4  24.449  168.4  0.0082   80.9  0.9691   -9.1
 0.150  0.7175  -24.3  24.008  162.8  0.0123   77.6  0.9543  -13.6
 0.200  0.7076  -32.0  23.466  157.6  0.0160   74.4  0.9346  -17.9
 0.250  0.6922  -39.7  22.728  152.3  0.0196   71.1  0.9114  -22.0
 0.300  0.6785  -47.0  22.056  147.4  0.0229   68.2  0.8846  -25.9
 0.350  0.6631  -54.2  21.274  142.9  0.0259   65.4  0.8561  -29.6
 0.400  0.6481  -60.8  20.460  138.4  0.0287   62.9  0.8264  -32.9
 0.450  0.6325  -67.3  19.639  134.3  0.0313   60.4  0.7965  -36.1
 0.500  0.6176  -73.5  18.814  130.4  0.0335   58.2  0.7663  -39.1
 0.600  0.5899  -85.0  17.249  123.2  0.0375   54.5  0.7091  -44.5
 0.700  0.5664  -95.4  15.793  117.0  0.0408   51.5  0.6557  -49.1
 0.800  0.5466 -104.6  14.463  111.5  0.0437   49.2  0.6078  -53.1
 0.900  0.5307 -113.2  13.305  106.6  0.0462   47.3  0.5649  -56.8
 1.000  0.5190 -121.1  12.272  102.2  0.0485   45.7  0.5259  -60.2
 1.100  0.5088 -128.1  11.352   98.2  0.0506   44.5  0.4919  -63.1
 1.200  0.5017 -134.7  10.539   94.4  0.0526   43.4  0.4601  -66.1
 1.300  0.4955 -140.7   9.821   91.1  0.0546   42.6  0.4326  -68.7
 1.400  0.4922 -146.3   9.179   87.9  0.0565   41.8  0.4075  -71.4
 1.500  0.4879 -151.3   8.614   85.0  0.0583   41.1  0.3842  -73.8
 1.600  0.4862 -156.1   8.101   82.2  0.0601   40.5  0.3637  -76.1
 1.700  0.4842 -160.8   7.645   79.6  0.0619   40.0  0.3442  -78.5
 1.800  0.4831 -164.9   7.219   77.1  0.0637   39.5  0.3269  -80.6
 1.900  0.4832 -169.2   6.842   74.6  0.0655   38.9  0.3098  -83.2
 2.000  0.4807 -172.9   6.500   72.4  0.0674   38.5  0.2949  -85.1
 2.200  0.4826  179.6   5.906   67.9  0.0710   37.4  0.2664  -90.0
 2.400  0.4863  172.9   5.398   63.8  0.0746   36.3  0.2409  -95.1
 2.600  0.4931  166.5   4.964   59.8  0.0781   35.3  0.2183 -100.7
 2.800  0.4994  160.9   4.589   56.1  0.0816   34.3  0.1985 -106.6
 3.000  0.5086  155.6   4.266   52.5  0.0852   33.1  0.1814 -112.9
 3.500  0.5375  143.2   3.613   43.7  0.0939   30.1  0.1501 -132.8
 4.000  0.5648  132.7   3.115   35.5  0.1028   26.8  0.1385 -155.0
 4.500  0.5875  124.4   2.715   27.7  0.1109   23.1  0.1437 -175.0
 5.000  0.6009  117.9   2.396   20.8  0.1186   19.6  0.1533  169.5
 5.500  0.6155  111.4   2.149   14.2  0.1259   16.1  0.1675  156.4
 6.000  0.6357  105.1   1.954    7.6  0.1334   12.7  0.1856  144.8
 6.500  0.6576   99.5   1.792    0.8  0.1415    8.8  0.2042  135.1
 7.000  0.6742   93.9   1.658   -6.2  0.1502    4.7  0.2191  125.9
 7.500  0.6859   88.0   1.537  -13.1  0.1585   -0.2  0.2406  117.8
 8.000  0.6993   81.3   1.410  -20.4  0.1638   -5.8  0.2687  109.6
 8.500  0.7174   74.2   1.280  -27.0  0.1649  -10.8  0.3039  100.4
 9.000  0.7514   68.0   1.173  -32.8  0.1653  -14.5  0.3538   92.9
 9.500  0.8046   63.3   1.091  -38.2  0.1671  -17.7  0.4137   88.1
10.000  0.8454   60.0   0.988  -43.7  0.1694  -21.1  0.4672   84.7
!
!  f       Fmin   Gammaopt  rn/50
! GHz       dB    MAG  ANG    -
!
! noise parameter not availible yet for this operation point!
!
! (c) 2009  Infineon Technologies AG, Munich