! Infineon Technologies  Discrete & RF Semiconductors
! BFP420
!
! VCE =  3.5 V,  IC =  20 mA
! Common Emitter S-Parameters:                            Nov 2009
# GHz  S  MA  R  50
!  f         S11            S21            S12            S22
! GHz     MAG   ANG      MAG   ANG      MAG   ANG      MAG   ANG
 0.010  0.5275   -1.9  41.623  178.6  0.0012   57.6  0.9337    2.0
 0.020  0.5214   -4.5  40.495  176.2  0.0017   76.3  0.9456   -1.9
 0.050  0.5236  -12.6  40.067  171.4  0.0035   76.8  0.9464   -6.0
 0.100  0.5175  -25.8  39.217  163.7  0.0069   76.0  0.9306  -12.6
 0.150  0.5101  -38.0  37.727  156.2  0.0101   73.0  0.9016  -18.7
 0.200  0.5011  -49.5  35.988  149.3  0.0130   70.0  0.8645  -24.3
 0.250  0.4878  -60.3  33.945  142.9  0.0156   67.1  0.8238  -29.2
 0.300  0.4781  -70.3  32.040  137.1  0.0179   64.4  0.7807  -33.8
 0.350  0.4674  -79.5  30.096  132.0  0.0199   62.2  0.7386  -37.7
 0.400  0.4600  -87.7  28.229  127.2  0.0216   60.3  0.6981  -41.2
 0.450  0.4516  -95.4  26.465  123.0  0.0233   58.9  0.6600  -44.3
 0.500  0.4448 -102.4  24.824  119.1  0.0248   57.7  0.6246  -47.2
 0.600  0.4347 -114.6  21.948  112.3  0.0274   55.8  0.5624  -52.0
 0.700  0.4289 -124.9  19.534  106.6  0.0298   54.7  0.5101  -55.9
 0.800  0.4245 -133.6  17.505  101.7  0.0321   54.0  0.4664  -59.3
 0.900  0.4228 -141.2  15.824   97.5  0.0343   53.6  0.4294  -62.3
 1.000  0.4231 -148.0  14.393   93.7  0.0365   53.3  0.3971  -65.2
 1.100  0.4231 -153.7  13.168   90.3  0.0388   53.1  0.3698  -67.7
 1.200  0.4251 -159.0  12.117   87.1  0.0410   52.9  0.3448  -70.4
 1.300  0.4265 -163.7  11.208   84.2  0.0432   52.7  0.3235  -72.8
 1.400  0.4290 -168.1  10.413   81.5  0.0455   52.5  0.3043  -75.4
 1.500  0.4307 -172.1   9.725   79.0  0.0478   52.2  0.2866  -77.7
 1.600  0.4337 -175.6   9.104   76.6  0.0500   51.9  0.2713  -80.1
 1.700  0.4356 -179.5   8.562   74.3  0.0524   51.5  0.2566  -82.5
 1.800  0.4370  177.5   8.062   72.1  0.0547   51.1  0.2436  -84.7
 1.900  0.4405  174.2   7.617   70.1  0.0570   50.6  0.2308  -87.7
 2.000  0.4414  171.4   7.226   68.1  0.0594   50.2  0.2195  -89.8
 2.200  0.4476  165.5   6.538   64.1  0.0641   49.0  0.1981  -95.4
 2.400  0.4549  160.1   5.960   60.5  0.0686   47.7  0.1790 -101.7
 2.600  0.4651  155.1   5.469   56.8  0.0732   46.3  0.1626 -108.8
 2.800  0.4732  150.5   5.047   53.6  0.0777   44.9  0.1487 -116.5
 3.000  0.4849  146.2   4.686   50.3  0.0823   43.3  0.1373 -124.8
 3.500  0.5167  135.9   3.959   42.2  0.0931   39.2  0.1227 -150.1
 4.000  0.5471  127.0   3.409   34.6  0.1037   34.8  0.1280 -174.2
 4.500  0.5701  119.9   2.969   27.2  0.1134   30.2  0.1462  167.7
 5.000  0.5849  114.2   2.622   20.8  0.1224   25.9  0.1633  154.6
 5.500  0.6004  108.3   2.352   14.4  0.1308   21.6  0.1830  143.9
 6.000  0.6217  102.5   2.139    8.1  0.1393   17.4  0.2053  134.3
 6.500  0.6441   97.3   1.960    1.5  0.1481   12.8  0.2266  125.9
 7.000  0.6610   92.0   1.813   -5.2  0.1572    8.1  0.2427  117.7
 7.500  0.6731   86.4   1.681  -12.0  0.1658    2.6  0.2646  110.5
 8.000  0.6874   80.0   1.541  -19.1  0.1711   -3.4  0.2932  103.4
 8.500  0.7074   73.1   1.399  -25.6  0.1720   -8.7  0.3295   95.3
 9.000  0.7434   67.1   1.280  -31.2  0.1724  -12.7  0.3799   88.6
 9.500  0.7970   62.6   1.192  -36.4  0.1740  -16.2  0.4395   84.1
10.000  0.8388   59.3   1.080  -41.8  0.1760  -19.9  0.4912   80.8
!
!  f       Fmin   Gammaopt  rn/50
! GHz       dB    MAG  ANG    -
 0.900      1.23  0.16 -154   0.13
 1.800      1.51  0.24 -144   0.13
 2.400      1.66  0.22 -141   0.15
 3.000      1.69  0.30 -132   0.16
 4.000      1.82  0.42 -115   0.23
 5.000      2.28  0.48  -96   0.37
 6.000      2.65  0.52  -86   0.56
!
! (c) 2009  Infineon Technologies AG, Munich