! Infineon Technologies  Discrete & RF Semiconductors
! BFP420
!
! VCE =  3.0 V,  IC =  30 mA
! Common Emitter S-Parameters:                            Nov 2009
# GHz  S  MA  R  50
!  f         S11            S21            S12            S22
! GHz     MAG   ANG      MAG   ANG      MAG   ANG      MAG   ANG
 0.010  0.3985   -5.2  49.961  179.1  0.0014   97.2  0.9188    2.8
 0.020  0.4050   -6.8  48.853  175.9  0.0016   90.7  0.9392   -2.0
 0.050  0.4095  -17.0  48.298  170.2  0.0036   81.2  0.9426   -7.0
 0.100  0.4058  -34.5  46.882  160.9  0.0067   77.4  0.9192  -15.0
 0.150  0.4048  -50.3  44.448  152.3  0.0095   74.2  0.8792  -22.2
 0.200  0.4025  -64.2  41.663  144.6  0.0119   70.6  0.8300  -28.6
 0.250  0.3991  -77.1  38.613  137.6  0.0142   67.1  0.7782  -34.1
 0.300  0.3983  -88.3  35.836  131.6  0.0161   64.6  0.7267  -38.8
 0.350  0.3978  -98.1  33.151  126.4  0.0178   62.7  0.6781  -42.9
 0.400  0.3968 -106.5  30.682  121.6  0.0193   61.3  0.6339  -46.3
 0.450  0.3973 -114.2  28.441  117.5  0.0208   60.3  0.5936  -49.4
 0.500  0.3978 -120.9  26.421  113.7  0.0221   59.5  0.5573  -52.1
 0.600  0.3997 -132.0  22.999  107.3  0.0246   58.6  0.4960  -56.6
 0.700  0.4023 -141.1  20.241  102.0  0.0269   58.2  0.4464  -60.4
 0.800  0.4053 -148.6  17.996   97.5  0.0293   58.0  0.4061  -63.5
 0.900  0.4086 -155.0  16.162   93.5  0.0316   57.9  0.3725  -66.5
 1.000  0.4127 -160.7  14.630   90.0  0.0340   57.9  0.3435  -69.5
 1.100  0.4151 -165.5  13.336   86.9  0.0364   57.8  0.3192  -72.0
 1.200  0.4201 -169.8  12.235   84.0  0.0388   57.6  0.2972  -74.9
 1.300  0.4238 -173.8  11.293   81.3  0.0413   57.4  0.2785  -77.4
 1.400  0.4276 -177.3  10.474   78.8  0.0437   57.1  0.2617  -80.2
 1.500  0.4302  179.2   9.763   76.5  0.0462   56.8  0.2463  -82.7
 1.600  0.4345  176.2   9.132   74.2  0.0487   56.4  0.2330  -85.4
 1.700  0.4375  173.0   8.577   72.1  0.0512   55.9  0.2203  -88.2
 1.800  0.4400  170.4   8.071   70.1  0.0538   55.3  0.2092  -90.8
 1.900  0.4441  167.5   7.620   68.1  0.0562   54.7  0.1982  -94.1
 2.000  0.4447  165.1   7.222   66.2  0.0588   54.1  0.1884  -96.5
 2.200  0.4518  159.8   6.528   62.5  0.0638   52.7  0.1705 -103.1
 2.400  0.4599  155.1   5.947   59.0  0.0687   51.1  0.1551 -110.7
 2.600  0.4705  150.5   5.454   55.5  0.0735   49.5  0.1425 -119.2
 2.800  0.4795  146.4   5.032   52.3  0.0783   47.9  0.1327 -128.2
 3.000  0.4913  142.5   4.671   49.1  0.0832   46.2  0.1257 -137.7
 3.500  0.5233  133.1   3.941   41.3  0.0945   41.5  0.1232 -164.1
 4.000  0.5535  124.7   3.393   33.8  0.1056   36.7  0.1380  174.2
 4.500  0.5765  118.0   2.956   26.6  0.1155   31.8  0.1612  158.9
 5.000  0.5906  112.6   2.610   20.2  0.1249   27.2  0.1809  147.8
 5.500  0.6065  107.0   2.341   14.0  0.1336   22.8  0.2022  138.6
 6.000  0.6271  101.3   2.129    7.7  0.1424   18.3  0.2258  130.1
 6.500  0.6493   96.3   1.952    1.2  0.1513   13.5  0.2477  122.4
 7.000  0.6663   91.1   1.805   -5.4  0.1605    8.6  0.2642  114.7
 7.500  0.6779   85.5   1.672  -12.2  0.1691    3.0  0.2862  107.9
 8.000  0.6920   79.3   1.533  -19.2  0.1744   -3.1  0.3144  101.1
 8.500  0.7117   72.5   1.391  -25.7  0.1750   -8.5  0.3504   93.5
 9.000  0.7474   66.6   1.272  -31.2  0.1753  -12.5  0.4003   87.1
 9.500  0.8011   62.1   1.185  -36.4  0.1769  -16.1  0.4594   82.8
10.000  0.8424   58.9   1.074  -41.6  0.1787  -19.9  0.5103   79.4
!
!  f       Fmin   Gammaopt  rn/50
! GHz       dB    MAG  ANG    -
 0.900      1.51  0.26 -155   0.13
 1.800      1.78  0.33 -142   0.14
 2.400      1.96  0.30 -136   0.18
 3.000      1.98  0.38 -127   0.20
 4.000      2.11  0.47 -111   0.31
 5.000      2.57  0.53  -94   0.51
 6.000      3.00  0.57  -82   0.74
!
! (c) 2009  Infineon Technologies AG, Munich