! Infineon Technologies  Discrete & RF Semiconductors
! BFP420
!
! VCE =  3.5 V,  IC =  30 mA
! Common Emitter S-Parameters:                            Nov 2009
# GHz  S  MA  R  50
!  f         S11            S21            S12            S22
! GHz     MAG   ANG      MAG   ANG      MAG   ANG      MAG   ANG
 0.010  0.3994   -3.9  49.798  178.9  0.0011   80.4  0.9138    2.9
 0.020  0.4023   -6.2  48.548  175.8  0.0015   82.8  0.9318   -1.9
 0.050  0.4038  -16.6  47.930  170.3  0.0035   78.6  0.9358   -6.7
 0.100  0.4034  -33.7  46.541  161.2  0.0065   77.1  0.9144  -14.4
 0.150  0.4000  -48.9  44.202  152.8  0.0092   73.1  0.8760  -21.3
 0.200  0.3991  -62.8  41.522  145.2  0.0116   69.5  0.8290  -27.4
 0.250  0.3952  -75.5  38.578  138.3  0.0138   66.8  0.7792  -32.7
 0.300  0.3940  -86.5  35.881  132.3  0.0157   64.5  0.7292  -37.3
 0.350  0.3930  -96.3  33.247  127.1  0.0174   62.9  0.6822  -41.3
 0.400  0.3918 -104.7  30.830  122.3  0.0190   61.4  0.6393  -44.6
 0.450  0.3918 -112.4  28.614  118.2  0.0204   60.4  0.5997  -47.5
 0.500  0.3923 -119.2  26.618  114.4  0.0217   59.6  0.5639  -50.2
 0.600  0.3938 -130.5  23.212  107.9  0.0241   58.7  0.5034  -54.5
 0.700  0.3969 -139.7  20.458  102.7  0.0265   58.3  0.4542  -58.1
 0.800  0.3982 -147.4  18.200   98.1  0.0288   58.2  0.4141  -61.1
 0.900  0.4021 -153.8  16.365   94.1  0.0311   58.0  0.3806  -63.9
 1.000  0.4060 -159.6  14.823   90.6  0.0334   58.0  0.3516  -66.6
 1.100  0.4092 -164.4  13.520   87.4  0.0358   58.0  0.3274  -69.0
 1.200  0.4135 -168.9  12.411   84.5  0.0382   57.8  0.3052  -71.7
 1.300  0.4164 -172.9  11.455   81.8  0.0407   57.6  0.2864  -74.0
 1.400  0.4208 -176.6  10.628   79.2  0.0431   57.4  0.2694  -76.6
 1.500  0.4232  179.9   9.912   76.9  0.0456   57.0  0.2538  -78.9
 1.600  0.4275  176.9   9.271   74.6  0.0480   56.6  0.2402  -81.4
 1.700  0.4309  173.6   8.709   72.5  0.0505   56.1  0.2272  -83.9
 1.800  0.4326  171.0   8.197   70.4  0.0530   55.6  0.2157  -86.3
 1.900  0.4376  168.1   7.740   68.5  0.0555   55.0  0.2043  -89.3
 2.000  0.4386  165.6   7.336   66.6  0.0580   54.4  0.1943  -91.5
 2.200  0.4451  160.3   6.633   62.8  0.0630   53.0  0.1753  -97.5
 2.400  0.4528  155.5   6.042   59.3  0.0678   51.4  0.1586 -104.5
 2.600  0.4641  151.0   5.545   55.8  0.0726   49.8  0.1443 -112.4
 2.800  0.4731  146.8   5.115   52.6  0.0774   48.2  0.1327 -120.9
 3.000  0.4844  142.9   4.748   49.4  0.0821   46.5  0.1237 -130.1
 3.500  0.5170  133.4   4.007   41.6  0.0934   41.9  0.1157 -157.1
 4.000  0.5475  125.0   3.450   34.1  0.1044   37.1  0.1268  179.2
 4.500  0.5709  118.3   3.006   26.9  0.1144   32.2  0.1485  162.4
 5.000  0.5851  112.9   2.655   20.5  0.1237   27.6  0.1676  150.4
 5.500  0.6010  107.2   2.383   14.3  0.1324   23.2  0.1886  140.5
 6.000  0.6226  101.5   2.167    8.0  0.1411   18.8  0.2120  131.5
 6.500  0.6447   96.5   1.986    1.5  0.1500   13.9  0.2339  123.6
 7.000  0.6619   91.3   1.837   -5.1  0.1593    9.1  0.2504  115.6
 7.500  0.6732   85.8   1.702  -11.9  0.1679    3.5  0.2724  108.7
 8.000  0.6880   79.4   1.561  -19.0  0.1732   -2.6  0.3010  101.8
 8.500  0.7081   72.7   1.416  -25.4  0.1740   -8.0  0.3374   94.1
 9.000  0.7443   66.8   1.297  -30.9  0.1743  -12.0  0.3879   87.5
 9.500  0.7980   62.3   1.207  -36.1  0.1759  -15.6  0.4474   83.2
10.000  0.8403   59.1   1.095  -41.4  0.1779  -19.4  0.4987   79.8
!
!  f       Fmin   Gammaopt  rn/50
! GHz       dB    MAG  ANG    -
 0.900      1.51  0.26 -155   0.13
 1.800      1.78  0.33 -142   0.14
 2.400      1.96  0.30 -136   0.18
 3.000      1.98  0.38 -127   0.20
 4.000      2.11  0.47 -111   0.31
 5.000      2.57  0.53  -94   0.51
 6.000      3.00  0.57  -82   0.74
!
! (c) 2009  Infineon Technologies AG, Munich