! Infineon Technologies  Discrete & RF Semiconductors
! BFP420
!
! VCE =  3.5 V,  IC =  2.5 mA
! Common Emitter S-Parameters:                            Nov 2009
# GHz  S  MA  R  50
!  f         S11            S21            S12            S22
! GHz     MAG   ANG      MAG   ANG      MAG   ANG      MAG   ANG
 0.010  0.9159   -1.6   8.690  179.2  0.0010   87.0  0.9920    0.1
 0.020  0.9167   -1.6   8.456  178.9  0.0018   81.3  0.9929   -0.8
 0.050  0.9165   -3.8   8.484  176.7  0.0047   84.7  0.9934   -2.1
 0.100  0.9143   -8.1   8.527  173.7  0.0091   84.2  0.9917   -4.5
 0.150  0.9123  -12.2   8.499  170.6  0.0135   82.3  0.9882   -6.7
 0.200  0.9108  -16.2   8.468  167.5  0.0180   80.2  0.9835   -8.9
 0.250  0.9041  -20.2   8.392  164.2  0.0224   78.2  0.9777  -11.1
 0.300  0.8994  -24.4   8.349  161.2  0.0268   76.1  0.9703  -13.3
 0.350  0.8929  -28.4   8.281  158.3  0.0310   73.9  0.9618  -15.4
 0.400  0.8862  -32.3   8.188  155.3  0.0351   71.7  0.9521  -17.6
 0.450  0.8785  -36.3   8.098  152.3  0.0392   69.6  0.9418  -19.7
 0.500  0.8698  -40.3   7.989  149.3  0.0430   67.6  0.9300  -21.7
 0.600  0.8522  -48.0   7.766  143.6  0.0504   63.4  0.9051  -25.7
 0.700  0.8325  -55.6   7.513  138.1  0.0571   59.5  0.8775  -29.4
 0.800  0.8129  -62.8   7.229  132.9  0.0633   55.9  0.8488  -33.0
 0.900  0.7937  -69.9   6.954  127.9  0.0688   52.4  0.8191  -36.3
 1.000  0.7745  -76.8   6.684  123.2  0.0738   49.1  0.7893  -39.6
 1.100  0.7562  -83.5   6.404  118.7  0.0782   46.1  0.7601  -42.5
 1.200  0.7389  -90.0   6.139  114.3  0.0823   43.1  0.7304  -45.4
 1.300  0.7232  -96.2   5.882  110.3  0.0859   40.5  0.7028  -48.1
 1.400  0.7074 -102.3   5.636  106.4  0.0890   37.9  0.6751  -50.6
 1.500  0.6935 -108.0   5.408  102.8  0.0919   35.5  0.6489  -53.0
 1.600  0.6816 -113.7   5.185   99.1  0.0942   33.2  0.6237  -55.3
 1.700  0.6685 -119.1   4.980   95.8  0.0966   31.1  0.5998  -57.4
 1.800  0.6582 -124.2   4.767   92.5  0.0984   29.1  0.5774  -59.4
 1.900  0.6487 -129.5   4.584   89.4  0.1003   27.2  0.5547  -61.5
 2.000  0.6388 -134.1   4.404   86.4  0.1018   25.5  0.5349  -63.2
 2.200  0.6230 -143.8   4.084   80.6  0.1044   22.2  0.4949  -66.8
 2.400  0.6114 -152.9   3.793   75.2  0.1064   19.1  0.4582  -70.4
 2.600  0.6060 -161.7   3.537   70.0  0.1076   16.4  0.4244  -73.7
 2.800  0.6008 -169.8   3.301   65.3  0.1085   14.0  0.3938  -77.0
 3.000  0.6005 -177.4   3.099   60.7  0.1092   11.8  0.3661  -80.1
 3.500  0.6093  165.3   2.668   49.8  0.1100    7.2  0.3056  -89.0
 4.000  0.6268  150.6   2.328   39.6  0.1106    3.8  0.2594  -99.0
 4.500  0.6430  139.0   2.040   30.2  0.1109    1.0  0.2270 -110.5
 5.000  0.6522  130.0   1.802   22.0  0.1111   -1.0  0.2045 -121.7
 5.500  0.6628  121.6   1.618   14.3  0.1114   -2.5  0.1883 -134.0
 6.000  0.6800  113.7   1.473    6.9  0.1129   -3.4  0.1784 -147.6
 6.500  0.7001  106.7   1.355   -0.6  0.1166   -4.4  0.1749 -161.6
 7.000  0.7159  100.2   1.255   -8.2  0.1218   -5.8  0.1738 -175.1
 7.500  0.7266   93.4   1.165  -15.7  0.1280   -8.1  0.1807  170.5
 8.000  0.7375   85.7   1.069  -23.5  0.1328  -11.6  0.1946  155.3
 8.500  0.7494   77.9   0.973  -30.5  0.1346  -14.9  0.2148  138.5
 9.000  0.7792   71.1   0.893  -36.8  0.1358  -17.1  0.2561  123.3
 9.500  0.8307   65.9   0.828  -42.7  0.1382  -18.8  0.3181  113.6
10.000  0.8704   62.2   0.748  -48.9  0.1425  -20.8  0.3837  107.9
!
!  f       Fmin   Gammaopt  rn/50
! GHz       dB    MAG  ANG    -
 0.900      0.55  0.41   33   0.20
 1.800      1.02  0.24   78   0.16
 2.400      1.11  0.26  103   0.15
 3.000      1.28  0.27  140   0.11
 4.000      1.50  0.34 -163   0.10
 5.000      1.85  0.40 -130   0.26
 6.000      2.56  0.50 -109   0.35
!
! (c) 2009  Infineon Technologies AG, Munich