! Infineon Technologies  Discrete & RF Semiconductors
! BFP420
!
! VCE =  3.0 V,  IC =  3.0 mA
! Common Emitter S-Parameters:                            Nov 2009
# GHz  S  MA  R  50
!  f         S11            S21            S12            S22
! GHz     MAG   ANG      MAG   ANG      MAG   ANG      MAG   ANG
 0.010  0.9071   -1.6  10.221  179.2  0.0005   67.1  0.9920    0.1
 0.020  0.8985   -1.7   9.963  178.8  0.0019   87.4  0.9925   -0.9
 0.050  0.8942   -4.5   9.991  176.5  0.0046   86.7  0.9929   -2.4
 0.100  0.8959   -9.0  10.028  173.2  0.0092   84.4  0.9907   -5.0
 0.150  0.8918  -13.4   9.998  169.7  0.0138   82.5  0.9863   -7.6
 0.200  0.8901  -17.9   9.941  166.4  0.0184   79.9  0.9801  -10.1
 0.250  0.8834  -22.3   9.829  162.9  0.0228   77.5  0.9732  -12.5
 0.300  0.8771  -26.8   9.768  159.6  0.0272   75.3  0.9638  -15.0
 0.350  0.8687  -31.1   9.658  156.5  0.0314   73.0  0.9535  -17.4
 0.400  0.8616  -35.4   9.528  153.2  0.0355   70.6  0.9414  -19.7
 0.450  0.8514  -39.8   9.395  150.1  0.0395   68.4  0.9291  -22.0
 0.500  0.8415  -44.0   9.240  146.9  0.0432   66.2  0.9147  -24.2
 0.600  0.8215  -52.3   8.920  140.9  0.0504   61.8  0.8850  -28.6
 0.700  0.7990  -60.4   8.577  135.2  0.0568   57.9  0.8525  -32.7
 0.800  0.7782  -68.0   8.195  129.8  0.0625   54.2  0.8195  -36.5
 0.900  0.7568  -75.5   7.835  124.7  0.0676   50.7  0.7860  -40.0
 1.000  0.7365  -82.8   7.483  119.9  0.0721   47.5  0.7525  -43.4
 1.100  0.7183  -89.5   7.128  115.4  0.0761   44.6  0.7207  -46.5
 1.200  0.7009  -96.3   6.796  111.0  0.0797   41.7  0.6887  -49.5
 1.300  0.6854 -102.5   6.478  107.1  0.0829   39.3  0.6595  -52.3
 1.400  0.6705 -108.7   6.176  103.1  0.0856   36.8  0.6306  -54.9
 1.500  0.6576 -114.6   5.902   99.6  0.0882   34.7  0.6032  -57.4
 1.600  0.6472 -120.1   5.635   96.0  0.0902   32.6  0.5775  -59.7
 1.700  0.6348 -125.6   5.391   92.8  0.0923   30.7  0.5532  -61.9
 1.800  0.6258 -130.7   5.148   89.6  0.0939   28.9  0.5304  -63.9
 1.900  0.6180 -135.9   4.935   86.6  0.0955   27.2  0.5077  -66.1
 2.000  0.6093 -140.6   4.730   83.7  0.0969   25.7  0.4878  -67.8
 2.200  0.5955 -149.9   4.365   78.1  0.0993   22.8  0.4488  -71.6
 2.400  0.5871 -158.8   4.040   72.9  0.1013   20.1  0.4126  -75.3
 2.600  0.5844 -167.5   3.756   67.9  0.1027   17.7  0.3797  -79.0
 2.800  0.5814 -175.2   3.497   63.4  0.1038   15.7  0.3502  -82.5
 3.000  0.5828  177.6   3.274   59.0  0.1048   13.9  0.3236  -86.0
 3.500  0.5964  161.1   2.808   48.4  0.1066   10.0  0.2659  -96.1
 4.000  0.6162  147.2   2.443   38.7  0.1087    7.0  0.2233 -107.9
 4.500  0.6334  136.2   2.137   29.5  0.1104    4.4  0.1956 -121.4
 5.000  0.6435  127.6   1.888   21.6  0.1122    2.4  0.1780 -134.4
 5.500  0.6554  119.6   1.694   14.1  0.1140    0.7  0.1675 -148.4
 6.000  0.6723  112.0   1.541    6.8  0.1169   -0.6  0.1640 -163.5
 6.500  0.6933  105.3   1.417   -0.6  0.1217   -2.2  0.1665 -178.0
 7.000  0.7088   98.9   1.312   -8.1  0.1278   -4.1  0.1706  169.0
 7.500  0.7206   92.3   1.218  -15.5  0.1345   -7.0  0.1833  155.8
 8.000  0.7317   84.9   1.118  -23.1  0.1395  -11.0  0.2031  142.1
 8.500  0.7443   77.2   1.016  -30.1  0.1410  -14.7  0.2294  127.4
 9.000  0.7753   70.4   0.932  -36.4  0.1420  -17.3  0.2749  114.6
 9.500  0.8259   65.4   0.865  -42.2  0.1442  -19.3  0.3375  106.6
10.000  0.8661   61.7   0.782  -48.2  0.1479  -21.6  0.4006  101.9
!
!  f       Fmin   Gammaopt  rn/50
! GHz       dB    MAG  ANG    -
 0.900      0.57  0.35   33   0.18
 1.800      1.02  0.20   79   0.14
 2.400      1.10  0.23  104   0.14
 3.000      1.25  0.24  144   0.11
 4.000      1.46  0.33 -159   0.10
 5.000      1.90  0.39 -128   0.22
 6.000      2.46  0.48 -107   0.35
!
! (c) 2009  Infineon Technologies AG, Munich