! Infineon Technologies  Discrete & RF Semiconductors
! BFP420
!
! VCE =  3.0 V,  IC =  1.2 mA
! Common Emitter S-Parameters:                            Nov 2009
# GHz  S  MA  R  50
!  f         S11            S21            S12            S22
! GHz     MAG   ANG      MAG   ANG      MAG   ANG      MAG   ANG
 0.010  0.9587   -1.0   4.357  179.3  0.0006   65.0  0.9970    0.0
 0.020  0.9570   -1.1   4.216  179.3  0.0019   83.9  0.9967   -0.6
 0.050  0.9555   -3.0   4.249  177.5  0.0048   86.7  0.9970   -1.6
 0.100  0.9572   -6.2   4.272  175.1  0.0096   86.2  0.9962   -3.4
 0.150  0.9558   -9.3   4.274  172.6  0.0144   84.5  0.9943   -5.1
 0.200  0.9547  -12.4   4.269  170.1  0.0191   82.7  0.9916   -6.8
 0.250  0.9516  -15.5   4.246  167.4  0.0239   80.9  0.9883   -8.5
 0.300  0.9490  -18.6   4.246  165.0  0.0286   79.0  0.9841  -10.1
 0.350  0.9459  -21.7   4.231  162.6  0.0333   77.2  0.9792  -11.8
 0.400  0.9426  -24.8   4.206  160.1  0.0379   75.3  0.9734  -13.5
 0.450  0.9380  -27.9   4.186  157.6  0.0425   73.6  0.9675  -15.1
 0.500  0.9334  -31.0   4.157  155.1  0.0470   71.6  0.9602  -16.7
 0.600  0.9237  -37.2   4.094  150.2  0.0557   68.0  0.9451  -19.9
 0.700  0.9121  -43.3   4.027  145.5  0.0640   64.3  0.9275  -23.0
 0.800  0.8992  -49.3   3.935  140.9  0.0720   60.9  0.9088  -26.0
 0.900  0.8871  -55.2   3.847  136.3  0.0793   57.4  0.8886  -28.8
 1.000  0.8735  -61.2   3.757  132.0  0.0864   54.1  0.8676  -31.7
 1.100  0.8606  -66.9   3.659  127.8  0.0929   50.9  0.8462  -34.3
 1.200  0.8476  -72.8   3.563  123.5  0.0990   47.7  0.8239  -37.0
 1.300  0.8346  -78.4   3.465  119.6  0.1046   44.7  0.8023  -39.5
 1.400  0.8214  -83.9   3.369  115.6  0.1097   41.6  0.7801  -41.9
 1.500  0.8093  -89.3   3.277  112.0  0.1146   38.9  0.7582  -44.2
 1.600  0.7975  -94.7   3.184  108.2  0.1186   36.0  0.7366  -46.4
 1.700  0.7848  -99.9   3.095  104.7  0.1227   33.4  0.7160  -48.4
 1.800  0.7735 -104.9   2.999  101.2  0.1259   30.8  0.6956  -50.4
 1.900  0.7634 -110.1   2.917   97.8  0.1292   28.2  0.6748  -52.5
 2.000  0.7523 -114.8   2.830   94.7  0.1319   25.8  0.6561  -54.2
 2.200  0.7334 -124.5   2.676   88.3  0.1365   21.2  0.6181  -57.8
 2.400  0.7155 -134.0   2.525   82.2  0.1400   16.7  0.5820  -61.3
 2.600  0.7028 -143.4   2.387   76.4  0.1421   12.5  0.5481  -64.6
 2.800  0.6913 -152.1   2.255   71.0  0.1432    8.6  0.5169  -67.7
 3.000  0.6857 -160.4   2.139   65.8  0.1436    5.0  0.4887  -70.7
 3.500  0.6812  179.8   1.881   53.3  0.1417   -2.9  0.4255  -78.5
 4.000  0.6894  163.0   1.666   41.8  0.1377   -9.2  0.3766  -86.9
 4.500  0.6998  149.2   1.472   31.0  0.1319  -14.5  0.3404  -96.2
 5.000  0.7043  138.5   1.306   21.8  0.1249  -18.3  0.3138 -105.5
 5.500  0.7111  128.8   1.173   13.3  0.1173  -20.8  0.2917 -115.1
 6.000  0.7251  119.8   1.071    5.3  0.1110  -21.4  0.2762 -125.7
 6.500  0.7437  111.9   0.988   -2.8  0.1078  -21.1  0.2667 -136.9
 7.000  0.7583  104.5   0.917  -10.7  0.1073  -20.3  0.2597 -148.5
 7.500  0.7689   97.0   0.852  -18.4  0.1090  -20.0  0.2571 -161.8
 8.000  0.7760   88.8   0.781  -26.4  0.1110  -20.7  0.2589 -176.7
 8.500  0.7821   80.4   0.711  -33.6  0.1117  -21.6  0.2624  166.6
 9.000  0.8082   73.2   0.652  -40.0  0.1129  -21.5  0.2870  148.6
 9.500  0.8576   67.6   0.602  -46.0  0.1160  -21.1  0.3426  134.6
10.000  0.8965   63.5   0.542  -52.1  0.1218  -21.4  0.4131  125.3
!
!  f       Fmin   Gammaopt  rn/50
! GHz       dB    MAG  ANG    -
 0.900      0.53  0.62   33   0.31
 1.800      1.10  0.40   77   0.24
 2.400      1.23  0.41  100   0.20
 3.000      1.51  0.41  132   0.14
 4.000      1.80  0.44 -175   0.09
 5.000      2.23  0.45 -132   0.38
 6.000      3.18  0.57 -116   0.44
!
! (c) 2009  Infineon Technologies AG, Munich