! Infineon Technologies  Discrete & RF Semiconductors
! BFP420
!
! VCE =  3.5 V,  IC =  2.0 mA
! Common Emitter S-Parameters:                            Nov 2009
# GHz  S  MA  R  50
!  f         S11            S21            S12            S22
! GHz     MAG   ANG      MAG   ANG      MAG   ANG      MAG   ANG
 0.010  0.9316   -1.8   7.071  179.3  0.0008   82.3  0.9938    0.0
 0.020  0.9332   -1.4   6.873  179.0  0.0019   78.5  0.9946   -0.8
 0.050  0.9318   -3.7   6.909  177.0  0.0046   83.0  0.9947   -1.9
 0.100  0.9323   -7.4   6.941  174.3  0.0091   84.8  0.9935   -4.0
 0.150  0.9297  -11.1   6.931  171.3  0.0137   82.9  0.9909   -6.0
 0.200  0.9279  -14.7   6.910  168.5  0.0182   81.1  0.9870   -8.0
 0.250  0.9235  -18.5   6.863  165.4  0.0227   79.0  0.9823  -10.0
 0.300  0.9193  -22.2   6.840  162.7  0.0272   77.1  0.9764  -12.1
 0.350  0.9136  -25.9   6.798  160.0  0.0316   75.0  0.9694  -14.0
 0.400  0.9091  -29.5   6.737  157.1  0.0358   73.0  0.9612  -15.9
 0.450  0.9019  -33.2   6.677  154.4  0.0399   71.0  0.9529  -17.8
 0.500  0.8950  -36.8   6.606  151.6  0.0440   69.1  0.9431  -19.7
 0.600  0.8804  -44.0   6.455  146.1  0.0518   65.0  0.9222  -23.4
 0.700  0.8633  -51.1   6.286  140.9  0.0590   61.3  0.8986  -26.9
 0.800  0.8463  -57.8   6.083  135.9  0.0658   57.6  0.8738  -30.3
 0.900  0.8283  -64.6   5.891  131.0  0.0718   54.1  0.8474  -33.5
 1.000  0.8113  -71.2   5.691  126.4  0.0775   50.8  0.8208  -36.6
 1.100  0.7944  -77.5   5.486  122.0  0.0826   47.7  0.7941  -39.4
 1.200  0.7774  -83.9   5.290  117.6  0.0873   44.6  0.7672  -42.3
 1.300  0.7623  -89.9   5.096  113.7  0.0914   41.8  0.7412  -44.9
 1.400  0.7468  -95.9   4.907  109.6  0.0952   39.0  0.7153  -47.4
 1.500  0.7334 -101.5   4.729  106.0  0.0986   36.4  0.6902  -49.8
 1.600  0.7209 -107.0   4.554  102.3  0.1014   33.9  0.6659  -52.0
 1.700  0.7073 -112.5   4.391   98.8  0.1042   31.6  0.6427  -54.1
 1.800  0.6963 -117.6   4.219   95.5  0.1064   29.4  0.6207  -56.1
 1.900  0.6863 -122.9   4.072   92.2  0.1085   27.2  0.5983  -58.2
 2.000  0.6757 -127.6   3.924   89.2  0.1103   25.2  0.5783  -59.9
 2.200  0.6583 -137.4   3.660   83.2  0.1133   21.5  0.5384  -63.5
 2.400  0.6435 -146.7   3.417   77.6  0.1155   17.9  0.5012  -67.0
 2.600  0.6353 -155.8   3.198   72.2  0.1168   14.6  0.4668  -70.3
 2.800  0.6284 -164.0   2.994   67.2  0.1176   11.8  0.4356  -73.4
 3.000  0.6253 -171.9   2.819   62.4  0.1180    9.2  0.4073  -76.4
 3.500  0.6303  169.8   2.441   51.0  0.1176    3.6  0.3447  -84.7
 4.000  0.6444  154.5   2.138   40.5  0.1165   -0.5  0.2969  -93.8
 4.500  0.6585  142.2   1.877   30.7  0.1149   -3.9  0.2621 -104.2
 5.000  0.6664  132.6   1.660   22.1  0.1129   -6.2  0.2372 -114.4
 5.500  0.6760  123.8   1.490   14.2  0.1111   -7.7  0.2180 -125.4
 6.000  0.6924  115.6   1.357    6.6  0.1105   -8.2  0.2050 -137.6
 6.500  0.7121  108.4   1.250   -1.0  0.1125   -8.6  0.1980 -150.4
 7.000  0.7276  101.5   1.158   -8.8  0.1164   -9.2  0.1938 -163.3
 7.500  0.7390   94.5   1.075  -16.3  0.1216  -10.8  0.1963 -177.8
 8.000  0.7479   86.7   0.987  -24.2  0.1260  -13.5  0.2049  166.6
 8.500  0.7583   78.7   0.897  -31.3  0.1276  -16.3  0.2187  149.1
 9.000  0.7874   71.7   0.824  -37.7  0.1289  -18.0  0.2547  132.2
 9.500  0.8377   66.5   0.763  -43.7  0.1316  -19.2  0.3153  120.7
10.000  0.8775   62.7   0.689  -49.9  0.1363  -20.7  0.3830  113.9
!
!  f       Fmin   Gammaopt  rn/50
! GHz       dB    MAG  ANG    -
 0.900      0.53  0.47   33   0.22
 1.800      1.03  0.29   77   0.17
 2.400      1.13  0.31  102   0.16
 3.000      1.32  0.31  136   0.12
 4.000      1.57  0.37 -168   0.10
 5.000      1.96  0.42 -129   0.28
 6.000      2.72  0.51 -111   0.37
!
! (c) 2009  Infineon Technologies AG, Munich