! Infineon Technologies  Discrete & RF Semiconductors
! BFP420
!
! VCE =  3.5 V,  IC =  9.0 mA
! Common Emitter S-Parameters:                            Nov 2009
# GHz  S  MA  R  50
!  f         S11            S21            S12            S22
! GHz     MAG   ANG      MAG   ANG      MAG   ANG      MAG   ANG
 0.010  0.7436   -1.2  25.347  178.7  0.0009   80.2  0.9649    0.7
 0.020  0.7327   -3.2  24.657  177.4  0.0020   68.2  0.9722   -1.5
 0.050  0.7302   -8.0  24.557  173.9  0.0042   76.3  0.9716   -4.3
 0.100  0.7284  -16.1  24.402  168.5  0.0080   78.1  0.9641   -8.8
 0.150  0.7175  -23.9  23.957  163.0  0.0120   76.2  0.9502  -13.1
 0.200  0.7088  -31.4  23.429  157.8  0.0156   73.3  0.9312  -17.3
 0.250  0.6933  -39.0  22.716  152.6  0.0191   70.7  0.9090  -21.2
 0.300  0.6785  -46.2  22.062  147.8  0.0223   67.6  0.8832  -25.0
 0.350  0.6638  -53.2  21.297  143.3  0.0252   65.0  0.8557  -28.5
 0.400  0.6494  -59.8  20.503  138.9  0.0280   62.5  0.8268  -31.8
 0.450  0.6334  -66.3  19.700  134.8  0.0304   60.4  0.7980  -34.9
 0.500  0.6185  -72.4  18.885  130.9  0.0327   58.3  0.7687  -37.8
 0.600  0.5903  -83.8  17.349  123.8  0.0366   54.6  0.7128  -43.0
 0.700  0.5665  -94.2  15.905  117.6  0.0399   51.7  0.6606  -47.5
 0.800  0.5462 -103.5  14.584  112.1  0.0427   49.3  0.6137  -51.4
 0.900  0.5304 -112.0  13.430  107.1  0.0452   47.5  0.5714  -54.8
 1.000  0.5177 -119.9  12.398  102.7  0.0475   46.0  0.5330  -58.1
 1.100  0.5072 -126.9  11.480   98.7  0.0496   44.8  0.4994  -60.9
 1.200  0.4995 -133.6  10.659   94.9  0.0516   43.7  0.4680  -63.7
 1.300  0.4935 -139.6   9.938   91.5  0.0536   42.9  0.4408  -66.2
 1.400  0.4895 -145.2   9.294   88.3  0.0554   42.1  0.4156  -68.7
 1.500  0.4850 -150.3   8.725   85.5  0.0573   41.5  0.3926  -71.0
 1.600  0.4836 -155.1   8.206   82.6  0.0590   40.9  0.3720  -73.2
 1.700  0.4810 -159.9   7.746   80.0  0.0608   40.3  0.3524  -75.4
 1.800  0.4793 -164.0   7.316   77.4  0.0626   39.8  0.3350  -77.4
 1.900  0.4798 -168.3   6.934   75.0  0.0644   39.3  0.3178  -79.8
 2.000  0.4776 -172.0   6.590   72.7  0.0662   38.8  0.3029  -81.6
 2.200  0.4787 -179.6   5.988   68.3  0.0698   37.8  0.2741  -86.1
 2.400  0.4814  173.5   5.474   64.1  0.0734   36.7  0.2479  -90.9
 2.600  0.4889  167.1   5.036   60.1  0.0768   35.7  0.2246  -96.1
 2.800  0.4948  161.4   4.655   56.4  0.0803   34.7  0.2039 -101.4
 3.000  0.5042  156.1   4.327   52.8  0.0839   33.6  0.1857 -107.1
 3.500  0.5319  143.6   3.664   44.0  0.0926   30.5  0.1505 -125.7
 4.000  0.5609  133.1   3.161   35.8  0.1013   27.3  0.1339 -147.7
 4.500  0.5829  124.8   2.755   28.0  0.1094   23.6  0.1352 -168.7
 5.000  0.5966  118.2   2.431   21.1  0.1172   20.2  0.1425  174.7
 5.500  0.6118  111.7   2.180   14.4  0.1244   16.7  0.1552  160.4
 6.000  0.6320  105.3   1.983    7.8  0.1319   13.3  0.1722  147.9
 6.500  0.6538   99.7   1.819    1.1  0.1399    9.3  0.1900  137.5
 7.000  0.6708   94.1   1.683   -5.9  0.1486    5.3  0.2045  127.9
 7.500  0.6827   88.2   1.561  -12.9  0.1570    0.4  0.2259  119.4
 8.000  0.6964   81.5   1.432  -20.1  0.1625   -5.2  0.2540  110.9
 8.500  0.7146   74.4   1.300  -26.8  0.1637  -10.2  0.2896  101.5
 9.000  0.7488   68.1   1.192  -32.5  0.1643  -13.9  0.3399   93.6
 9.500  0.8020   63.5   1.108  -38.0  0.1661  -17.1  0.4002   88.8
10.000  0.8432   60.1   1.005  -43.6  0.1685  -20.5  0.4541   85.4
!
!  f       Fmin   Gammaopt  rn/50
! GHz       dB    MAG  ANG    -
!
! noise parameter not availible yet for this operation point!
!
! (c) 2009  Infineon Technologies AG, Munich