! Infineon Technologies  Discrete & RF Semiconductors
! BFP420
!
! VCE =  3.5 V,  IC =  15 mA
! Common Emitter S-Parameters:                            Nov 2009
# GHz  S  MA  R  50
!  f         S11            S21            S12            S22
! GHz     MAG   ANG      MAG   ANG      MAG   ANG      MAG   ANG
 0.010  0.6010   -2.0  35.533  178.7  0.0010   63.5  0.9452    1.4
 0.020  0.6042   -4.1  34.553  176.6  0.0018   68.6  0.9557   -1.9
 0.050  0.6042  -10.6  34.270  172.3  0.0039   74.8  0.9556   -5.4
 0.100  0.5974  -21.6  33.732  165.5  0.0074   76.3  0.9430  -11.2
 0.150  0.5889  -31.9  32.737  158.7  0.0108   74.0  0.9200  -16.7
 0.200  0.5782  -42.0  31.532  152.4  0.0139   70.9  0.8902  -21.8
 0.250  0.5625  -51.5  30.058  146.4  0.0169   67.8  0.8562  -26.5
 0.300  0.5491  -60.5  28.691  140.9  0.0194   65.1  0.8190  -30.8
 0.350  0.5352  -69.1  27.218  135.9  0.0218   62.6  0.7815  -34.7
 0.400  0.5227  -76.7  25.763  131.2  0.0239   60.4  0.7445  -38.2
 0.450  0.5102  -84.1  24.360  127.0  0.0257   58.6  0.7087  -41.4
 0.500  0.4993  -91.0  23.015  123.0  0.0274   57.1  0.6746  -44.3
 0.600  0.4815 -103.1  20.594  116.0  0.0303   54.4  0.6128  -49.3
 0.700  0.4674 -113.8  18.501  110.1  0.0330   52.8  0.5591  -53.4
 0.800  0.4574 -123.0  16.688  104.9  0.0353   51.5  0.5132  -57.1
 0.900  0.4511 -131.1  15.166  100.4  0.0375   50.7  0.4738  -60.2
 1.000  0.4468 -138.5  13.854   96.4  0.0396   50.1  0.4388  -63.2
 1.100  0.4437 -144.7  12.715   92.8  0.0417   49.7  0.4093  -65.9
 1.200  0.4433 -150.7  11.728   89.4  0.0438   49.3  0.3820  -68.7
 1.300  0.4425 -155.9  10.870   86.4  0.0459   49.0  0.3585  -71.0
 1.400  0.4435 -160.8  10.118   83.5  0.0481   48.7  0.3374  -73.6
 1.500  0.4436 -165.1   9.460   80.9  0.0502   48.4  0.3179  -75.9
 1.600  0.4452 -169.2   8.869   78.4  0.0523   48.0  0.3008  -78.2
 1.700  0.4460 -173.3   8.350   76.0  0.0544   47.7  0.2846  -80.5
 1.800  0.4475 -176.7   7.870   73.7  0.0566   47.3  0.2704  -82.7
 1.900  0.4497  179.5   7.442   71.5  0.0588   46.9  0.2561  -85.4
 2.000  0.4495  176.4   7.059   69.5  0.0610   46.5  0.2436  -87.4
 2.200  0.4540  170.1   6.396   65.3  0.0653   45.5  0.2199  -92.6
 2.400  0.4603  164.2   5.834   61.5  0.0696   44.3  0.1987  -98.3
 2.600  0.4705  158.7   5.358   57.8  0.0739   43.0  0.1800 -104.8
 2.800  0.4788  153.7   4.946   54.4  0.0782   41.8  0.1639 -111.7
 3.000  0.4889  149.2   4.594   51.0  0.0824   40.4  0.1503 -119.1
 3.500  0.5196  138.2   3.881   42.7  0.0927   36.7  0.1290 -142.7
 4.000  0.5496  128.8   3.344   34.9  0.1029   32.7  0.1279 -166.8
 4.500  0.5731  121.3   2.913   27.5  0.1122   28.3  0.1418  173.8
 5.000  0.5873  115.4   2.572   20.9  0.1209   24.3  0.1566  159.6
 5.500  0.6028  109.3   2.307   14.4  0.1290   20.2  0.1747  147.9
 6.000  0.6237  103.3   2.098    8.0  0.1372   16.2  0.1958  137.6
 6.500  0.6463   98.0   1.923    1.4  0.1459   11.8  0.2163  128.7
 7.000  0.6628   92.6   1.778   -5.4  0.1549    7.2  0.2320  120.2
 7.500  0.6751   86.9   1.649  -12.2  0.1634    1.9  0.2539  112.7
 8.000  0.6895   80.4   1.512  -19.4  0.1688   -4.0  0.2825  105.2
 8.500  0.7088   73.5   1.373  -25.9  0.1697   -9.2  0.3186   96.8
 9.000  0.7442   67.4   1.257  -31.5  0.1702  -13.1  0.3690   89.8
 9.500  0.7981   62.9   1.170  -36.8  0.1719  -16.5  0.4287   85.3
10.000  0.8400   59.6   1.060  -42.3  0.1740  -20.1  0.4808   81.9
!
!  f       Fmin   Gammaopt  rn/50
! GHz       dB    MAG  ANG    -
 0.900      1.06  0.09 -152   0.13
 1.800      1.36  0.18 -147   0.12
 2.400      1.49  0.17 -148   0.14
 3.000      1.53  0.25 -138   0.14
 4.000      1.67  0.38 -119   0.20
 5.000      2.14  0.44 -103   0.32
 6.000      2.48  0.50  -88   0.47
!
! (c) 2009  Infineon Technologies AG, Munich