! Infineon Technologies  Discrete & RF Semiconductors
! BFP420
!
! VCE =  3.5 V,  IC =  4.0 mA
! Common Emitter S-Parameters:                            Nov 2009
# GHz  S  MA  R  50
!  f         S11            S21            S12            S22
! GHz     MAG   ANG      MAG   ANG      MAG   ANG      MAG   ANG
 0.010  0.8745   -1.9  13.205  179.1  0.0008   68.4  0.9859    0.2
 0.020  0.8704   -2.2  12.870  178.5  0.0019   76.8  0.9882   -1.1
 0.050  0.8643   -4.8  12.888  175.9  0.0044   82.1  0.9880   -2.7
 0.100  0.8675  -10.2  12.913  172.3  0.0088   82.1  0.9853   -5.7
 0.150  0.8624  -15.4  12.836  168.4  0.0131   80.3  0.9798   -8.5
 0.200  0.8576  -20.4  12.736  164.7  0.0175   77.9  0.9718  -11.3
 0.250  0.8495  -25.4  12.551  160.8  0.0215   75.8  0.9624  -14.0
 0.300  0.8417  -30.4  12.428  157.3  0.0256   73.3  0.9506  -16.8
 0.350  0.8313  -35.3  12.239  153.8  0.0295   70.9  0.9373  -19.4
 0.400  0.8215  -40.1  12.025  150.3  0.0332   68.5  0.9222  -22.0
 0.450  0.8104  -44.9  11.795  146.9  0.0368   66.2  0.9066  -24.4
 0.500  0.7985  -49.5  11.552  143.5  0.0402   64.0  0.8891  -26.9
 0.600  0.7734  -58.6  11.040  137.1  0.0463   59.7  0.8533  -31.5
 0.700  0.7489  -67.3  10.512  131.1  0.0518   55.8  0.8154  -35.7
 0.800  0.7246  -75.5   9.946  125.6  0.0566   52.3  0.7780  -39.6
 0.900  0.7015  -83.4   9.429  120.4  0.0607   49.0  0.7409  -43.1
 1.000  0.6818  -90.9   8.925  115.6  0.0644   46.1  0.7049  -46.5
 1.100  0.6627  -97.9   8.437  111.2  0.0677   43.6  0.6713  -49.5
 1.200  0.6456 -104.9   7.984  106.8  0.0705   41.1  0.6382  -52.5
 1.300  0.6313 -111.2   7.565  103.0  0.0731   39.0  0.6081  -55.2
 1.400  0.6179 -117.4   7.170   99.2  0.0753   36.9  0.5793  -57.8
 1.500  0.6065 -123.1   6.812   95.8  0.0774   35.2  0.5521  -60.1
 1.600  0.5970 -128.7   6.473   92.4  0.0791   33.6  0.5272  -62.3
 1.700  0.5873 -134.1   6.169   89.3  0.0808   32.0  0.5031  -64.5
 1.800  0.5801 -139.1   5.869   86.2  0.0823   30.6  0.4814  -66.5
 1.900  0.5730 -144.2   5.603   83.3  0.0838   29.3  0.4597  -68.6
 2.000  0.5667 -148.6   5.355   80.7  0.0851   28.1  0.4408  -70.3
 2.200  0.5563 -157.7   4.917   75.3  0.0876   25.9  0.4035  -74.1
 2.400  0.5509 -166.3   4.530   70.4  0.0897   23.8  0.3694  -77.8
 2.600  0.5511 -174.4   4.195   65.7  0.0915   22.0  0.3386  -81.6
 2.800  0.5504  178.2   3.896   61.4  0.0932   20.6  0.3107  -85.2
 3.000  0.5547  171.6   3.638   57.2  0.0949   19.2  0.2858  -88.8
 3.500  0.5731  156.1   3.105   47.2  0.0988   16.1  0.2317 -100.0
 4.000  0.5954  143.1   2.693   37.9  0.1030   13.6  0.1926 -113.2
 4.500  0.6147  132.9   2.353   29.2  0.1071   10.9  0.1686 -128.6
 5.000  0.6260  124.8   2.077   21.6  0.1112    8.8  0.1547 -143.3
 5.500  0.6388  117.3   1.863   14.4  0.1151    6.6  0.1486 -158.9
 6.000  0.6575  110.2   1.695    7.3  0.1198    4.8  0.1494 -175.2
 6.500  0.6786  103.7   1.558    0.1  0.1259    2.4  0.1557  170.4
 7.000  0.6946   97.5   1.441   -7.2  0.1331   -0.3  0.1627  157.6
 7.500  0.7062   91.1   1.338  -14.5  0.1406   -3.9  0.1784  145.2
 8.000  0.7181   83.9   1.228  -22.1  0.1459   -8.4  0.2015  132.6
 8.500  0.7331   76.4   1.116  -29.0  0.1476  -12.7  0.2317  119.1
 9.000  0.7652   69.8   1.024  -35.0  0.1485  -15.7  0.2795  107.8
 9.500  0.8171   64.9   0.951  -40.8  0.1507  -18.1  0.3416  100.9
10.000  0.8579   61.3   0.862  -46.8  0.1541  -20.8  0.4020   96.8
!
!  f       Fmin   Gammaopt  rn/50
! GHz       dB    MAG  ANG    -
 0.900      0.61  0.27   32   0.16
 1.800      1.03  0.14   83   0.13
 2.400      1.11  0.17  110   0.14
 3.000      1.23  0.20  153   0.11
 4.000      1.42  0.31 -151   0.11
 5.000      1.77  0.38 -123   0.23
 6.000      2.35  0.47 -104   0.33
!
! (c) 2009  Infineon Technologies AG, Munich