! Infineon Technologies  Discrete & RF Semiconductors
! BFP420
!
! VCE =  4.5 V,  IC =  0.5 mA
! Common Emitter S-Parameters:                            Nov 2009
# GHz  S  MA  R  50
!  f         S11            S21            S12            S22
! GHz     MAG   ANG      MAG   ANG      MAG   ANG      MAG   ANG
 0.010  0.9878   -1.4   2.009  179.5  0.0011   41.0  0.9991    0.0
 0.020  0.9865   -0.9   1.943  179.6  0.0020   76.7  0.9977   -0.4
 0.050  0.9864   -2.5   1.954  177.8  0.0042   86.4  0.9979   -1.2
 0.100  0.9872   -5.0   1.962  175.9  0.0089   85.9  0.9978   -2.5
 0.150  0.9859   -7.4   1.968  173.8  0.0135   84.5  0.9965   -3.8
 0.200  0.9865   -9.8   1.967  171.7  0.0180   83.4  0.9952   -5.0
 0.250  0.9842  -12.3   1.961  169.4  0.0225   82.0  0.9933   -6.3
 0.300  0.9843  -14.8   1.965  167.4  0.0270   80.7  0.9907   -7.5
 0.350  0.9814  -17.3   1.964  165.4  0.0315   79.2  0.9879   -8.8
 0.400  0.9802  -19.8   1.958  163.2  0.0359   77.6  0.9845  -10.0
 0.450  0.9776  -22.3   1.956  161.1  0.0404   76.2  0.9811  -11.2
 0.500  0.9754  -24.8   1.950  158.9  0.0448   74.6  0.9769  -12.5
 0.600  0.9692  -29.8   1.934  154.7  0.0535   71.6  0.9682  -14.9
 0.700  0.9629  -34.8   1.924  150.5  0.0621   68.4  0.9579  -17.3
 0.800  0.9551  -39.8   1.900  146.4  0.0703   65.4  0.9464  -19.6
 0.900  0.9476  -44.8   1.880  142.3  0.0783   62.3  0.9343  -21.9
 1.000  0.9396  -49.8   1.855  138.4  0.0862   59.2  0.9214  -24.1
 1.100  0.9315  -54.7   1.827  134.5  0.0936   56.4  0.9078  -26.2
 1.200  0.9230  -59.7   1.801  130.4  0.1009   53.3  0.8934  -28.4
 1.300  0.9142  -64.6   1.773  126.7  0.1077   50.4  0.8792  -30.5
 1.400  0.9047  -69.6   1.745  122.8  0.1142   47.4  0.8642  -32.6
 1.500  0.8961  -74.3   1.716  119.3  0.1205   44.6  0.8490  -34.5
 1.600  0.8880  -79.2   1.689  115.5  0.1261   41.6  0.8336  -36.4
 1.700  0.8772  -83.9   1.661  112.0  0.1317   38.9  0.8185  -38.3
 1.800  0.8678  -88.6   1.627  108.5  0.1365   36.1  0.8033  -40.0
 1.900  0.8597  -93.4   1.602  105.0  0.1413   33.4  0.7878  -41.9
 2.000  0.8498  -97.8   1.568  101.7  0.1456   30.8  0.7736  -43.5
 2.200  0.8317 -107.2   1.515   95.0  0.1532   25.5  0.7432  -46.8
 2.400  0.8139 -116.5   1.458   88.5  0.1597   20.3  0.7140  -50.1
 2.600  0.7995 -125.8   1.403   82.3  0.1642   15.2  0.6852  -53.2
 2.800  0.7839 -134.6   1.344   76.3  0.1673   10.5  0.6582  -56.1
 3.000  0.7741 -143.3   1.294   70.5  0.1693    5.9  0.6334  -59.0
 3.500  0.7592 -164.4   1.173   56.5  0.1693   -4.7  0.5757  -66.3
 4.000  0.7581  176.8   1.063   43.5  0.1648  -13.7  0.5302  -73.9
 4.500  0.7629  161.0   0.954   31.4  0.1566  -21.9  0.4955  -82.3
 5.000  0.7622  148.3   0.853   21.1  0.1447  -28.7  0.4670  -90.9
 5.500  0.7635  137.1   0.770   11.7  0.1305  -33.9  0.4401  -99.5
 6.000  0.7739  126.9   0.705    3.2  0.1164  -36.7  0.4203 -108.5
 6.500  0.7905  118.0   0.653   -5.1  0.1052  -37.4  0.4073 -118.1
 7.000  0.8043  109.7   0.607  -13.3  0.0968  -36.3  0.3960 -128.3
 7.500  0.8130  101.4   0.564  -20.9  0.0912  -33.9  0.3857 -139.7
 8.000  0.8164   92.4   0.517  -28.7  0.0878  -31.2  0.3768 -152.8
 8.500  0.8171   83.3   0.471  -35.5  0.0859  -27.9  0.3641 -167.8
 9.000  0.8386   75.6   0.433  -41.6  0.0869  -23.7  0.3672  174.7
 9.500  0.8860   69.5   0.398  -47.0  0.0912  -19.8  0.4037  158.0
10.000  0.9230   65.1   0.359  -52.7  0.0994  -17.7  0.4686  145.0
!
!  f       Fmin   Gammaopt  rn/50
! GHz       dB    MAG  ANG    -
 0.900      0.68  0.78   35   0.65
 1.800      1.42  0.60   75   0.50
 2.400      1.57  0.58   98   0.37
 3.000      2.10  0.58  128   0.24
 4.000      2.49  0.57  177   0.09
!
! (c) 2009  Infineon Technologies AG, Munich