! Infineon Technologies  Discrete & RF Semiconductors
! BFP420
!
! VCE =  4.0 V,  IC =  9.0 mA
! Common Emitter S-Parameters:                            Nov 2009
# GHz  S  MA  R  50
!  f         S11            S21            S12            S22
! GHz     MAG   ANG      MAG   ANG      MAG   ANG      MAG   ANG
 0.010  0.7221   -2.2  25.344  178.9  0.0014   33.4  0.9551    0.8
 0.020  0.7301   -3.0  24.630  177.4  0.0020   49.6  0.9616   -1.5
 0.050  0.7316   -7.7  24.503  173.9  0.0042   70.4  0.9616   -4.1
 0.100  0.7284  -15.7  24.336  168.6  0.0078   73.5  0.9544   -8.5
 0.150  0.7185  -23.4  23.914  163.2  0.0117   73.1  0.9411  -12.7
 0.200  0.7085  -31.0  23.379  158.1  0.0152   71.4  0.9231  -16.7
 0.250  0.6938  -38.4  22.693  152.9  0.0186   68.8  0.9018  -20.5
 0.300  0.6802  -45.6  22.049  148.1  0.0217   66.5  0.8768  -24.2
 0.350  0.6651  -52.5  21.301  143.7  0.0247   64.0  0.8503  -27.6
 0.400  0.6498  -59.0  20.525  139.3  0.0273   61.8  0.8224  -30.8
 0.450  0.6344  -65.4  19.733  135.2  0.0297   59.6  0.7948  -33.8
 0.500  0.6188  -71.5  18.934  131.4  0.0320   57.8  0.7662  -36.6
 0.600  0.5911  -82.9  17.412  124.2  0.0359   54.3  0.7120  -41.6
 0.700  0.5668  -93.2  15.990  118.1  0.0391   51.5  0.6611  -46.0
 0.800  0.5460 -102.4  14.675  112.5  0.0419   49.3  0.6153  -49.7
 0.900  0.5297 -111.0  13.523  107.6  0.0444   47.4  0.5739  -53.1
 1.000  0.5163 -118.9  12.496  103.1  0.0467   45.9  0.5364  -56.3
 1.100  0.5056 -125.9  11.573   99.1  0.0488   44.8  0.5035  -59.0
 1.200  0.4975 -132.6  10.756   95.3  0.0507   43.7  0.4724  -61.7
 1.300  0.4915 -138.7  10.032   92.0  0.0526   42.9  0.4455  -64.1
 1.400  0.4869 -144.3   9.383   88.7  0.0545   42.2  0.4208  -66.5
 1.500  0.4827 -149.5   8.815   85.8  0.0563   41.6  0.3978  -68.7
 1.600  0.4810 -154.3   8.291   83.0  0.0581   41.0  0.3775  -70.8
 1.700  0.4778 -159.2   7.828   80.3  0.0599   40.5  0.3581  -72.9
 1.800  0.4765 -163.2   7.395   77.8  0.0617   40.0  0.3409  -74.8
 1.900  0.4770 -167.6   7.011   75.3  0.0635   39.4  0.3236  -77.0
 2.000  0.4739 -171.3   6.662   73.1  0.0653   39.0  0.3088  -78.7
 2.200  0.4748 -179.0   6.055   68.6  0.0688   38.0  0.2798  -82.9
 2.400  0.4776  174.1   5.537   64.4  0.0723   37.0  0.2534  -87.4
 2.600  0.4851  167.7   5.093   60.3  0.0758   36.0  0.2297  -92.2
 2.800  0.4917  161.8   4.708   56.7  0.0793   35.0  0.2084  -97.2
 3.000  0.5006  156.6   4.378   53.1  0.0828   33.8  0.1895 -102.5
 3.500  0.5287  144.0   3.710   44.3  0.0914   30.8  0.1514 -119.9
 4.000  0.5572  133.3   3.200   36.0  0.1002   27.6  0.1310 -141.3
 4.500  0.5796  125.0   2.789   28.2  0.1082   24.0  0.1288 -162.9
 5.000  0.5931  118.4   2.462   21.3  0.1159   20.6  0.1338  179.5
 5.500  0.6086  111.8   2.209   14.6  0.1231   17.1  0.1449  164.1
 6.000  0.6291  105.6   2.008    8.1  0.1306   13.7  0.1609  150.8
 6.500  0.6509   99.9   1.843    1.3  0.1387    9.8  0.1782  139.7
 7.000  0.6681   94.3   1.704   -5.7  0.1473    5.7  0.1922  129.7
 7.500  0.6797   88.3   1.580  -12.7  0.1557    0.9  0.2134  120.8
 8.000  0.6937   81.6   1.450  -19.9  0.1613   -4.7  0.2415  112.1
 8.500  0.7121   74.5   1.317  -26.6  0.1626   -9.7  0.2774  102.3
 9.000  0.7473   68.3   1.208  -32.4  0.1633  -13.4  0.3280   94.3
 9.500  0.8005   63.6   1.124  -37.9  0.1651  -16.6  0.3885   89.3
10.000  0.8417   60.2   1.019  -43.5  0.1676  -20.0  0.4429   86.0
!
!  f       Fmin   Gammaopt  rn/50
! GHz       dB    MAG  ANG    -
!
! noise parameter not availible yet for this operation point!
!
! (c) 2009  Infineon Technologies AG, Munich