! Infineon Technologies  Discrete & RF Semiconductors
! BFP420
!
! VCE =  4.5 V,  IC =  4.0 mA
! Common Emitter S-Parameters:                            Nov 2009
# GHz  S  MA  R  50
!  f         S11            S21            S12            S22
! GHz     MAG   ANG      MAG   ANG      MAG   ANG      MAG   ANG
 0.010  0.8811   -1.0  13.398  179.0  0.0012   12.6  0.9773    0.3
 0.020  0.8860   -2.2  13.003  178.4  0.0024   45.6  0.9788   -1.0
 0.050  0.8826   -4.9  13.008  175.9  0.0043   66.2  0.9787   -2.6
 0.100  0.8834  -10.0  13.024  172.3  0.0086   75.3  0.9766   -5.4
 0.150  0.8784  -15.0  12.947  168.5  0.0128   75.4  0.9712   -8.1
 0.200  0.8760  -20.0  12.844  164.9  0.0167   74.5  0.9637  -10.8
 0.250  0.8654  -25.0  12.667  161.1  0.0208   72.7  0.9547  -13.4
 0.300  0.8576  -29.9  12.541  157.6  0.0246   70.9  0.9435  -16.0
 0.350  0.8478  -34.7  12.357  154.1  0.0284   69.0  0.9309  -18.5
 0.400  0.8378  -39.4  12.146  150.6  0.0320   67.0  0.9165  -20.9
 0.450  0.8257  -44.2  11.920  147.2  0.0354   64.9  0.9017  -23.3
 0.500  0.8134  -48.7  11.677  143.9  0.0387   62.9  0.8850  -25.6
 0.600  0.7884  -57.7  11.178  137.5  0.0446   58.8  0.8511  -30.0
 0.700  0.7622  -66.3  10.649  131.6  0.0499   55.1  0.8150  -34.0
 0.800  0.7379  -74.4  10.092  126.1  0.0545   51.8  0.7790  -37.7
 0.900  0.7135  -82.2   9.573  120.9  0.0586   48.7  0.7437  -41.1
 1.000  0.6920  -89.6   9.068  116.1  0.0622   45.9  0.7090  -44.3
 1.100  0.6723  -96.6   8.579  111.7  0.0654   43.5  0.6767  -47.2
 1.200  0.6543 -103.5   8.127  107.3  0.0682   41.1  0.6446  -50.1
 1.300  0.6380 -109.8   7.704  103.5  0.0707   39.0  0.6157  -52.6
 1.400  0.6241 -116.0   7.307   99.7  0.0729   37.0  0.5878  -55.0
 1.500  0.6121 -121.7   6.945   96.3  0.0750   35.3  0.5614  -57.3
 1.600  0.6014 -127.3   6.603   92.8  0.0766   33.7  0.5370  -59.4
 1.700  0.5907 -132.8   6.295   89.7  0.0784   32.2  0.5137  -61.4
 1.800  0.5829 -137.6   5.988   86.7  0.0798   30.8  0.4924  -63.2
 1.900  0.5754 -142.8   5.720   83.8  0.0813   29.5  0.4708  -65.2
 2.000  0.5681 -147.2   5.468   81.1  0.0826   28.4  0.4523  -66.8
 2.200  0.5575 -156.4   5.023   75.7  0.0850   26.3  0.4157  -70.3
 2.400  0.5505 -165.0   4.629   70.9  0.0871   24.2  0.3819  -73.8
 2.600  0.5496 -173.3   4.288   66.1  0.0889   22.5  0.3512  -77.2
 2.800  0.5488  179.3   3.981   61.8  0.0906   21.1  0.3234  -80.5
 3.000  0.5524  172.6   3.719   57.6  0.0923   19.7  0.2982  -83.8
 3.500  0.5691  157.0   3.175   47.6  0.0962   16.7  0.2430  -93.7
 4.000  0.5910  143.8   2.753   38.3  0.1005   14.3  0.2012 -105.5
 4.500  0.6108  133.5   2.405   29.6  0.1046   11.7  0.1736 -119.5
 5.000  0.6217  125.4   2.124   21.9  0.1087    9.6  0.1557 -133.4
 5.500  0.6346  117.7   1.905   14.7  0.1127    7.5  0.1452 -148.5
 6.000  0.6537  110.5   1.733    7.6  0.1174    5.7  0.1414 -165.0
 6.500  0.6745  104.1   1.593    0.5  0.1235    3.3  0.1439  179.3
 7.000  0.6908   97.8   1.474   -6.9  0.1307    0.7  0.1479  165.5
 7.500  0.7030   91.4   1.368  -14.1  0.1383   -2.8  0.1610  151.7
 8.000  0.7152   84.2   1.256  -21.7  0.1437   -7.3  0.1820  137.7
 8.500  0.7299   76.6   1.142  -28.6  0.1456  -11.6  0.2108  122.8
 9.000  0.7622   70.0   1.049  -34.8  0.1468  -14.6  0.2580  110.3
 9.500  0.8149   65.1   0.974  -40.6  0.1491  -17.0  0.3202  102.9
10.000  0.8558   61.5   0.884  -46.6  0.1526  -19.7  0.3813   98.7
!
!  f       Fmin   Gammaopt  rn/50
! GHz       dB    MAG  ANG    -
 0.900      0.61  0.27   32   0.16
 1.800      1.03  0.14   83   0.13
 2.400      1.11  0.17  110   0.14
 3.000      1.23  0.20  153   0.11
 4.000      1.42  0.31 -151   0.11
 5.000      1.77  0.38 -123   0.23
 6.000      2.35  0.47 -104   0.33
!
! (c) 2009  Infineon Technologies AG, Munich