! Infineon Technologies  Discrete & RF Semiconductors
! BFP420
!
! VCE =  4.0 V,  IC =  2.5 mA
! Common Emitter S-Parameters:                            Nov 2009
# GHz  S  MA  R  50
!  f         S11            S21            S12            S22
! GHz     MAG   ANG      MAG   ANG      MAG   ANG      MAG   ANG
 0.010  0.9260   -1.2   8.733  179.1  0.0010   61.6  0.9905    0.1
 0.020  0.9208   -1.7   8.490  178.9  0.0020   73.2  0.9912   -0.8
 0.050  0.9185   -4.0   8.509  176.7  0.0046   80.0  0.9917   -2.1
 0.100  0.9213   -8.0   8.549  173.8  0.0088   82.2  0.9903   -4.4
 0.150  0.9184  -12.2   8.529  170.6  0.0133   80.8  0.9869   -6.5
 0.200  0.9156  -16.1   8.488  167.6  0.0176   79.3  0.9822   -8.7
 0.250  0.9098  -20.2   8.422  164.3  0.0219   77.7  0.9768  -10.8
 0.300  0.9051  -24.2   8.379  161.4  0.0261   75.4  0.9695  -13.0
 0.350  0.8984  -28.2   8.312  158.4  0.0303   73.4  0.9615  -15.1
 0.400  0.8923  -32.1   8.219  155.5  0.0343   71.4  0.9518  -17.1
 0.450  0.8837  -36.1   8.131  152.5  0.0383   69.4  0.9422  -19.2
 0.500  0.8754  -39.9   8.022  149.5  0.0421   67.4  0.9305  -21.1
 0.600  0.8577  -47.6   7.801  143.8  0.0493   63.3  0.9064  -25.1
 0.700  0.8378  -55.2   7.556  138.4  0.0559   59.5  0.8795  -28.7
 0.800  0.8180  -62.4   7.273  133.2  0.0619   55.9  0.8516  -32.2
 0.900  0.7983  -69.4   7.000  128.2  0.0673   52.5  0.8224  -35.5
 1.000  0.7792  -76.4   6.729  123.5  0.0723   49.3  0.7933  -38.6
 1.100  0.7608  -82.9   6.453  119.1  0.0767   46.3  0.7648  -41.5
 1.200  0.7429  -89.4   6.189  114.7  0.0807   43.4  0.7360  -44.3
 1.300  0.7269  -95.6   5.932  110.7  0.0843   40.7  0.7086  -46.9
 1.400  0.7107 -101.7   5.686  106.7  0.0873   38.1  0.6815  -49.5
 1.500  0.6971 -107.4   5.458  103.1  0.0902   35.8  0.6555  -51.8
 1.600  0.6847 -113.0   5.233   99.4  0.0925   33.5  0.6307  -54.0
 1.700  0.6706 -118.5   5.028   96.1  0.0949   31.4  0.6072  -56.1
 1.800  0.6612 -123.6   4.816   92.8  0.0967   29.4  0.5849  -58.0
 1.900  0.6508 -128.8   4.630   89.6  0.0986   27.5  0.5625  -60.1
 2.000  0.6409 -133.5   4.450   86.7  0.1000   25.8  0.5426  -61.8
 2.200  0.6241 -143.2   4.128   80.9  0.1026   22.5  0.5031  -65.3
 2.400  0.6124 -152.3   3.836   75.5  0.1046   19.4  0.4663  -68.7
 2.600  0.6059 -161.2   3.576   70.3  0.1059   16.7  0.4327  -72.1
 2.800  0.6002 -169.2   3.338   65.5  0.1068   14.3  0.4023  -75.1
 3.000  0.6000 -176.9   3.133   61.0  0.1076   12.2  0.3747  -78.1
 3.500  0.6078  165.7   2.700   50.0  0.1083    7.6  0.3136  -86.7
 4.000  0.6254  151.0   2.355   39.9  0.1090    4.3  0.2669  -96.2
 4.500  0.6415  139.3   2.063   30.4  0.1094    1.5  0.2334 -107.2
 5.000  0.6502  130.2   1.823   22.3  0.1097   -0.5  0.2095 -118.0
 5.500  0.6611  121.8   1.636   14.6  0.1101   -2.0  0.1916 -129.8
 6.000  0.6782  114.0   1.490    7.2  0.1116   -2.8  0.1800 -143.0
 6.500  0.6982  106.9   1.370   -0.4  0.1153   -3.8  0.1744 -156.8
 7.000  0.7142  100.3   1.270   -8.0  0.1206   -5.1  0.1717 -170.4
 7.500  0.7252   93.5   1.178  -15.5  0.1268   -7.4  0.1764  174.9
 8.000  0.7362   85.9   1.081  -23.2  0.1317  -10.8  0.1882  159.1
 8.500  0.7478   78.0   0.984  -30.3  0.1336  -14.2  0.2066  141.6
 9.000  0.7780   71.2   0.904  -36.6  0.1349  -16.4  0.2463  125.5
 9.500  0.8295   66.0   0.837  -42.6  0.1375  -18.1  0.3079  115.2
10.000  0.8695   62.3   0.758  -48.8  0.1419  -20.1  0.3738  109.3
!
!  f       Fmin   Gammaopt  rn/50
! GHz       dB    MAG  ANG    -
 0.900      0.55  0.41   33   0.20
 1.800      1.02  0.24   78   0.16
 2.400      1.11  0.26  103   0.15
 3.000      1.28  0.27  140   0.11
 4.000      1.50  0.34 -163   0.10
 5.000      1.85  0.40 -130   0.26
 6.000      2.56  0.50 -109   0.35
!
! (c) 2009  Infineon Technologies AG, Munich