! Infineon Technologies  Discrete & RF Semiconductors
! BFP420
!
! VCE =  4.5 V,  IC =  3.0 mA
! Common Emitter S-Parameters:                            Nov 2009
# GHz  S  MA  R  50
!  f         S11            S21            S12            S22
! GHz     MAG   ANG      MAG   ANG      MAG   ANG      MAG   ANG
 0.010  0.9107   -1.2  10.388  179.1  0.0011   18.6  0.9849    0.2
 0.020  0.9200   -1.7  10.088  178.6  0.0021   54.5  0.9851   -0.9
 0.050  0.9142   -4.3  10.101  176.4  0.0046   73.2  0.9854   -2.2
 0.100  0.9153   -8.8  10.135  173.2  0.0086   77.2  0.9840   -4.7
 0.150  0.9129  -13.1  10.104  169.9  0.0129   77.3  0.9801   -7.0
 0.200  0.9095  -17.4  10.041  166.7  0.0171   76.6  0.9746   -9.3
 0.250  0.9025  -21.8   9.947  163.2  0.0213   75.0  0.9680  -11.6
 0.300  0.8964  -26.1   9.878  160.1  0.0254   73.2  0.9597  -13.9
 0.350  0.8881  -30.4   9.777  157.0  0.0294   71.3  0.9502  -16.1
 0.400  0.8806  -34.6   9.652  153.8  0.0332   69.2  0.9394  -18.3
 0.450  0.8711  -38.8   9.525  150.7  0.0369   67.3  0.9278  -20.4
 0.500  0.8611  -42.9   9.374  147.6  0.0405   65.4  0.9146  -22.4
 0.600  0.8406  -51.0   9.066  141.6  0.0472   61.4  0.8874  -26.5
 0.700  0.8178  -58.9   8.735  136.0  0.0532   57.6  0.8575  -30.3
 0.800  0.7954  -66.4   8.360  130.7  0.0587   54.2  0.8268  -33.8
 0.900  0.7733  -73.8   8.005  125.6  0.0635   50.8  0.7956  -37.2
 1.000  0.7528  -81.0   7.657  120.8  0.0679   47.7  0.7646  -40.3
 1.100  0.7329  -87.6   7.306  116.4  0.0718   45.0  0.7345  -43.1
 1.200  0.7141  -94.3   6.973  112.0  0.0752   42.2  0.7041  -46.0
 1.300  0.6968 -100.6   6.656  108.0  0.0784   39.8  0.6763  -48.6
 1.400  0.6814 -106.8   6.355  104.1  0.0810   37.4  0.6487  -51.0
 1.500  0.6674 -112.5   6.078  100.5  0.0835   35.3  0.6225  -53.3
 1.600  0.6555 -118.1   5.808   97.0  0.0855   33.3  0.5978  -55.4
 1.700  0.6423 -123.6   5.563   93.7  0.0875   31.4  0.5742  -57.5
 1.800  0.6318 -128.6   5.314   90.5  0.0891   29.7  0.5524  -59.4
 1.900  0.6230 -133.8   5.097   87.5  0.0907   28.0  0.5302  -61.4
 2.000  0.6130 -138.4   4.886   84.6  0.0921   26.5  0.5108  -63.0
 2.200  0.5986 -147.9   4.514   78.9  0.0945   23.7  0.4723  -66.4
 2.400  0.5879 -156.9   4.180   73.7  0.0964   21.1  0.4365  -69.8
 2.600  0.5833 -165.6   3.887   68.7  0.0979   18.7  0.4038  -73.1
 2.800  0.5795 -173.4   3.619   64.1  0.0990   16.8  0.3744  -76.2
 3.000  0.5802  179.2   3.389   59.7  0.1001   15.0  0.3476  -79.2
 3.500  0.5915  162.4   2.909   49.1  0.1020   11.2  0.2884  -87.9
 4.000  0.6107  148.3   2.531   39.4  0.1041    8.4  0.2431  -97.8
 4.500  0.6281  137.1   2.215   30.2  0.1060    5.8  0.2108 -109.4
 5.000  0.6375  128.4   1.956   22.3  0.1080    3.9  0.1881 -121.0
 5.500  0.6493  120.3   1.755   14.8  0.1100    2.3  0.1717 -133.6
 6.000  0.6669  112.6   1.597    7.4  0.1129    1.1  0.1615 -148.0
 6.500  0.6877  105.9   1.469    0.1  0.1177   -0.4  0.1577 -162.7
 7.000  0.7033   99.4   1.360   -7.4  0.1239   -2.2  0.1562 -176.8
 7.500  0.7150   92.7   1.262  -14.8  0.1308   -5.1  0.1633  168.3
 8.000  0.7262   85.3   1.159  -22.5  0.1361   -8.9  0.1779  152.6
 8.500  0.7397   77.5   1.054  -29.5  0.1380  -12.7  0.1996  135.3
 9.000  0.7711   70.8   0.969  -35.8  0.1394  -15.2  0.2427  120.2
 9.500  0.8230   65.7   0.899  -41.7  0.1419  -17.3  0.3047  110.9
10.000  0.8630   62.0   0.813  -47.8  0.1459  -19.6  0.3689  105.6
!
!  f       Fmin   Gammaopt  rn/50
! GHz       dB    MAG  ANG    -
 0.900      0.57  0.35   33   0.18
 1.800      1.02  0.20   79   0.14
 2.400      1.10  0.23  104   0.14
 3.000      1.25  0.24  144   0.11
 4.000      1.46  0.33 -159   0.10
 5.000      1.90  0.39 -128   0.22
 6.000      2.46  0.48 -107   0.35
!
! (c) 2009  Infineon Technologies AG, Munich