! Infineon Technologies  Discrete & RF Semiconductors
! BFP420
!
! VCE =  4.0 V,  IC =  5.0 mA
! Common Emitter S-Parameters:                            Nov 2009
# GHz  S  MA  R  50
!  f         S11            S21            S12            S22
! GHz     MAG   ANG      MAG   ANG      MAG   ANG      MAG   ANG
 0.010  0.8456   -1.2  16.065  179.0  0.0012   23.0  0.9779    0.4
 0.020  0.8480   -2.4  15.608  178.2  0.0019   59.3  0.9801   -1.2
 0.050  0.8432   -5.6  15.605  175.4  0.0041   72.7  0.9799   -3.0
 0.100  0.8399  -11.3  15.600  171.4  0.0085   77.6  0.9766   -6.2
 0.150  0.8363  -17.0  15.471  167.3  0.0127   77.0  0.9697   -9.3
 0.200  0.8297  -22.5  15.304  163.2  0.0166   75.3  0.9597  -12.4
 0.250  0.8197  -28.0  15.037  159.1  0.0205   73.2  0.9480  -15.3
 0.300  0.8097  -33.6  14.835  155.2  0.0244   70.8  0.9336  -18.3
 0.350  0.7983  -39.0  14.549  151.4  0.0279   68.5  0.9175  -21.1
 0.400  0.7868  -44.2  14.232  147.7  0.0313   66.3  0.8997  -23.8
 0.450  0.7734  -49.4  13.908  144.1  0.0346   63.9  0.8812  -26.4
 0.500  0.7599  -54.4  13.554  140.6  0.0375   61.8  0.8610  -28.9
 0.600  0.7321  -64.1  12.840  133.9  0.0430   57.7  0.8204  -33.6
 0.700  0.7051  -73.3  12.116  127.8  0.0477   54.0  0.7787  -37.9
 0.800  0.6804  -81.8  11.374  122.2  0.0518   50.8  0.7383  -41.8
 0.900  0.6565  -89.9  10.698  117.0  0.0553   47.9  0.6994  -45.3
 1.000  0.6364  -97.7  10.059  112.2  0.0585   45.3  0.6623  -48.6
 1.100  0.6189 -104.8   9.454  107.8  0.0612   43.1  0.6283  -51.5
 1.200  0.6035 -111.7   8.897  103.6  0.0636   41.0  0.5950  -54.4
 1.300  0.5893 -118.1   8.389   99.9  0.0659   39.3  0.5654  -56.9
 1.400  0.5779 -124.2   7.918   96.2  0.0678   37.6  0.5374  -59.4
 1.500  0.5684 -129.9   7.499   92.9  0.0697   36.2  0.5112  -61.7
 1.600  0.5610 -135.3   7.101   89.7  0.0713   34.9  0.4871  -63.8
 1.700  0.5522 -140.7   6.745   86.7  0.0729   33.7  0.4642  -65.9
 1.800  0.5462 -145.5   6.402   83.8  0.0744   32.6  0.4436  -67.7
 1.900  0.5416 -150.5   6.100   81.0  0.0759   31.6  0.4230  -69.8
 2.000  0.5347 -154.6   5.816   78.4  0.0772   30.7  0.4051  -71.5
 2.200  0.5293 -163.5   5.321   73.4  0.0798   28.9  0.3700  -75.2
 2.400  0.5259 -171.7   4.890   68.7  0.0823   27.3  0.3380  -79.0
 2.600  0.5279 -179.6   4.519   64.1  0.0846   26.0  0.3090  -82.7
 2.800  0.5291  173.6   4.188   60.0  0.0867   24.8  0.2827  -86.5
 3.000  0.5346  167.3   3.905   56.1  0.0890   23.6  0.2592  -90.3
 3.500  0.5562  152.6   3.324   46.4  0.0944   20.9  0.2081 -102.2
 4.000  0.5809  140.3   2.878   37.5  0.1002   18.3  0.1719 -116.8
 4.500  0.6015  130.6   2.512   29.0  0.1058   15.6  0.1512 -133.9
 5.000  0.6135  123.0   2.217   21.6  0.1112   13.1  0.1405 -150.0
 5.500  0.6268  115.7   1.989   14.6  0.1164   10.6  0.1379 -166.7
 6.000  0.6460  108.7   1.809    7.6  0.1221    8.2  0.1422  176.6
 6.500  0.6680  102.6   1.662    0.6  0.1290    5.3  0.1512  162.4
 7.000  0.6839   96.6   1.537   -6.6  0.1367    2.2  0.1601  150.0
 7.500  0.6964   90.3   1.426  -13.8  0.1446   -1.8  0.1776  138.2
 8.000  0.7083   83.3   1.309  -21.3  0.1502   -6.7  0.2026  126.5
 8.500  0.7246   75.9   1.190  -28.1  0.1518  -11.3  0.2351  114.0
 9.000  0.7575   69.4   1.092  -34.1  0.1528  -14.5  0.2842  103.5
 9.500  0.8105   64.5   1.015  -39.8  0.1548  -17.3  0.3459   97.3
10.000  0.8515   61.0   0.919  -45.7  0.1580  -20.2  0.4045   93.6
!
!  f       Fmin   Gammaopt  rn/50
! GHz       dB    MAG  ANG    -
 0.900      0.66  0.21   31   0.15
 1.800      1.05  0.09   93   0.13
 2.400      1.14  0.14  119   0.13
 3.000      1.24  0.17  165   0.11
 4.000      1.41  0.31 -145   0.12
 5.000      1.85  0.38 -119   0.21
 6.000      2.30  0.45 -101   0.36
!
! (c) 2009  Infineon Technologies AG, Munich