! Infineon Technologies  Discrete & RF Semiconductors
! BFP420
!
! VCE =  4.0 V,  IC =  15 mA
! Common Emitter S-Parameters:                            Nov 2009
# GHz  S  MA  R  50
!  f         S11            S21            S12            S22
! GHz     MAG   ANG      MAG   ANG      MAG   ANG      MAG   ANG
 0.010  0.5990   -1.0  35.352  178.5  0.0017   38.3  0.9290    1.6
 0.020  0.5959   -4.1  34.290  176.6  0.0020   48.6  0.9392   -1.7
 0.050  0.5954  -10.3  33.961  172.4  0.0039   65.6  0.9399   -5.1
 0.100  0.5912  -21.2  33.428  165.6  0.0073   71.1  0.9281  -10.7
 0.150  0.5821  -31.4  32.466  159.0  0.0106   70.6  0.9066  -16.0
 0.200  0.5727  -41.2  31.309  152.9  0.0136   68.5  0.8784  -20.9
 0.250  0.5559  -50.6  29.893  146.9  0.0164   66.3  0.8464  -25.5
 0.300  0.5435  -59.6  28.570  141.5  0.0190   63.7  0.8111  -29.6
 0.350  0.5297  -67.9  27.142  136.5  0.0213   61.6  0.7753  -33.4
 0.400  0.5175  -75.7  25.725  131.8  0.0233   59.6  0.7398  -36.8
 0.450  0.5060  -83.0  24.356  127.6  0.0251   58.0  0.7054  -39.9
 0.500  0.4949  -89.8  23.042  123.7  0.0268   56.5  0.6723  -42.7
 0.600  0.4768 -102.0  20.664  116.6  0.0298   54.2  0.6123  -47.6
 0.700  0.4635 -112.7  18.587  110.7  0.0323   52.6  0.5604  -51.6
 0.800  0.4536 -121.9  16.793  105.6  0.0347   51.5  0.5156  -55.1
 0.900  0.4469 -130.0  15.274  101.0  0.0369   50.6  0.4770  -58.1
 1.000  0.4425 -137.5  13.962   97.0  0.0390   50.0  0.4427  -61.0
 1.100  0.4395 -143.8  12.826   93.3  0.0411   49.7  0.4135  -63.5
 1.200  0.4386 -149.8  11.835   89.9  0.0432   49.3  0.3866  -66.1
 1.300  0.4379 -155.1  10.977   86.9  0.0453   49.0  0.3636  -68.4
 1.400  0.4386 -160.0  10.223   84.0  0.0473   48.7  0.3424  -70.8
 1.500  0.4385 -164.4   9.560   81.4  0.0495   48.5  0.3232  -73.0
 1.600  0.4405 -168.5   8.964   78.8  0.0515   48.2  0.3062  -75.2
 1.700  0.4417 -172.6   8.439   76.4  0.0537   47.8  0.2899  -77.4
 1.800  0.4424 -176.2   7.958   74.1  0.0558   47.5  0.2756  -79.4
 1.900  0.4450 -179.8   7.525   71.9  0.0580   47.0  0.2613  -82.0
 2.000  0.4453  176.9   7.141   69.8  0.0602   46.6  0.2488  -83.8
 2.200  0.4495  170.5   6.469   65.7  0.0645   45.7  0.2247  -88.6
 2.400  0.4560  164.7   5.902   61.9  0.0687   44.5  0.2029  -94.0
 2.600  0.4649  159.1   5.421   58.1  0.0729   43.3  0.1835 -100.0
 2.800  0.4735  154.2   5.005   54.7  0.0772   42.1  0.1663 -106.4
 3.000  0.4843  149.6   4.648   51.3  0.0814   40.7  0.1516 -113.2
 3.500  0.5155  138.5   3.929   43.0  0.0917   37.0  0.1262 -136.0
 4.000  0.5454  129.1   3.385   35.2  0.1018   33.0  0.1208 -160.9
 4.500  0.5689  121.5   2.950   27.7  0.1110   28.7  0.1320  178.2
 5.000  0.5829  115.6   2.604   21.1  0.1197   24.6  0.1456  162.9
 5.500  0.5992  109.5   2.337   14.7  0.1278   20.6  0.1631  150.3
 6.000  0.6199  103.5   2.124    8.3  0.1360   16.6  0.1837  139.4
 6.500  0.6424   98.2   1.948    1.6  0.1446   12.2  0.2039  130.1
 7.000  0.6600   92.8   1.802   -5.1  0.1536    7.7  0.2195  121.3
 7.500  0.6715   87.1   1.670  -12.0  0.1622    2.4  0.2415  113.6
 8.000  0.6863   80.6   1.533  -19.2  0.1677   -3.5  0.2701  106.0
 8.500  0.7061   73.7   1.391  -25.7  0.1687   -8.7  0.3067   97.4
 9.000  0.7418   67.6   1.275  -31.3  0.1693  -12.6  0.3575   90.3
 9.500  0.7959   63.0   1.186  -36.7  0.1710  -16.1  0.4175   85.7
10.000  0.8375   59.7   1.076  -42.1  0.1732  -19.6  0.4701   82.4
!
!  f       Fmin   Gammaopt  rn/50
! GHz       dB    MAG  ANG    -
 0.900      1.06  0.09 -152   0.13
 1.800      1.36  0.18 -147   0.12
 2.400      1.49  0.17 -148   0.14
 3.000      1.53  0.25 -138   0.14
 4.000      1.67  0.38 -119   0.20
 5.000      2.14  0.44 -103   0.32
 6.000      2.48  0.50  -88   0.47
!
! (c) 2009  Infineon Technologies AG, Munich