! Infineon Technologies  Discrete & RF Semiconductors
! BFP420
!
! VCE =  4.0 V,  IC =  1.0 mA
! Common Emitter S-Parameters:                            Nov 2009
# GHz  S  MA  R  50
!  f         S11            S21            S12            S22
! GHz     MAG   ANG      MAG   ANG      MAG   ANG      MAG   ANG
 0.010  0.9726   -1.5   3.741  179.3  0.0003   22.1  0.9978    0.0
 0.020  0.9676   -1.0   3.615  179.3  0.0020   81.7  0.9964   -0.5
 0.050  0.9681   -2.8   3.640  177.6  0.0045   83.8  0.9971   -1.4
 0.100  0.9677   -5.8   3.664  175.4  0.0091   84.6  0.9964   -3.0
 0.150  0.9670   -8.7   3.667  173.0  0.0137   84.0  0.9949   -4.6
 0.200  0.9685  -11.5   3.664  170.7  0.0182   82.3  0.9925   -6.1
 0.250  0.9645  -14.5   3.647  168.1  0.0227   80.8  0.9899   -7.6
 0.300  0.9625  -17.4   3.651  165.9  0.0272   79.2  0.9865   -9.1
 0.350  0.9586  -20.3   3.641  163.6  0.0317   77.6  0.9825  -10.6
 0.400  0.9566  -23.2   3.624  161.2  0.0361   75.9  0.9777  -12.0
 0.450  0.9524  -26.2   3.611  158.9  0.0406   74.2  0.9730  -13.5
 0.500  0.9485  -29.1   3.591  156.5  0.0449   72.5  0.9669  -15.0
 0.600  0.9406  -34.9   3.546  151.8  0.0533   69.0  0.9545  -17.9
 0.700  0.9299  -40.7   3.501  147.3  0.0615   65.6  0.9398  -20.7
 0.800  0.9193  -46.4   3.431  142.8  0.0693   62.3  0.9241  -23.5
 0.900  0.9073  -52.1   3.370  138.4  0.0767   58.9  0.9069  -26.1
 1.000  0.8955  -57.8   3.302  134.2  0.0838   55.7  0.8890  -28.7
 1.100  0.8836  -63.3   3.225  130.1  0.0903   52.7  0.8704  -31.2
 1.200  0.8718  -68.9   3.153  125.9  0.0966   49.5  0.8508  -33.7
 1.300  0.8596  -74.3   3.077  122.1  0.1025   46.5  0.8319  -36.0
 1.400  0.8474  -79.7   3.004  118.2  0.1078   43.5  0.8122  -38.3
 1.500  0.8354  -84.9   2.930  114.5  0.1129   40.7  0.7924  -40.5
 1.600  0.8242  -90.2   2.857  110.7  0.1172   37.8  0.7726  -42.6
 1.700  0.8115  -95.2   2.788  107.2  0.1216   35.2  0.7537  -44.6
 1.800  0.8008 -100.2   2.706  103.7  0.1252   32.5  0.7349  -46.5
 1.900  0.7902 -105.3   2.643  100.3  0.1287   29.9  0.7156  -48.4
 2.000  0.7790 -110.0   2.569   97.1  0.1317   27.5  0.6981  -50.1
 2.200  0.7589 -119.6   2.442   90.6  0.1369   22.7  0.6619  -53.6
 2.400  0.7409 -129.2   2.317   84.5  0.1410   17.9  0.6275  -57.0
 2.600  0.7272 -138.6   2.199   78.6  0.1436   13.5  0.5946  -60.2
 2.800  0.7132 -147.3   2.083   73.0  0.1450    9.5  0.5641  -63.1
 3.000  0.7062 -155.8   1.981   67.7  0.1457    5.6  0.5363  -66.0
 3.500  0.6984 -176.1   1.755   54.8  0.1440   -3.0  0.4735  -73.4
 4.000  0.7033  166.6   1.560   43.0  0.1398   -9.8  0.4245  -81.2
 4.500  0.7118  152.3   1.383   31.9  0.1335  -15.8  0.3875  -89.9
 5.000  0.7155  141.0   1.228   22.4  0.1253  -20.1  0.3589  -98.6
 5.500  0.7208  130.9   1.105   13.7  0.1165  -23.0  0.3341 -107.5
 6.000  0.7341  121.6   1.009    5.6  0.1086  -23.8  0.3159 -117.1
 6.500  0.7519  113.5   0.932   -2.5  0.1039  -23.3  0.3035 -127.5
 7.000  0.7663  105.9   0.865  -10.6  0.1020  -22.1  0.2933 -138.3
 7.500  0.7767   98.2   0.803  -18.3  0.1026  -21.1  0.2862 -150.8
 8.000  0.7828   89.7   0.737  -26.4  0.1041  -21.0  0.2819 -165.1
 8.500  0.7880   81.2   0.671  -33.5  0.1048  -21.1  0.2779  178.3
 9.000  0.8134   73.8   0.617  -40.0  0.1063  -20.4  0.2926  159.7
 9.500  0.8626   68.1   0.569  -46.0  0.1099  -19.5  0.3413  143.8
10.000  0.9011   64.0   0.512  -52.2  0.1164  -19.3  0.4104  132.9
!
!  f       Fmin   Gammaopt  rn/50
! GHz       dB    MAG  ANG    -
 0.900      0.53  0.67   34   0.35
 1.800      1.15  0.44   77   0.27
 2.400      1.28  0.44  100   0.22
 3.000      1.61  0.45  131   0.15
 4.000      1.90  0.47 -177   0.09
 5.000      2.32  0.44 -133   0.45
 6.000      3.43  0.60 -118   0.25
!
! (c) 2009  Infineon Technologies AG, Munich