! Infineon Technologies  Discrete & RF Semiconductors
! BFP420
!
! VCE =  4.0 V,  IC =  20 mA
! Common Emitter S-Parameters:                            Nov 2009
# GHz  S  MA  R  50
!  f         S11            S21            S12            S22
! GHz     MAG   ANG      MAG   ANG      MAG   ANG      MAG   ANG
 0.010  0.5072   -2.7  41.185  178.6  0.0016   40.9  0.9143    2.1
 0.020  0.5082   -4.6  40.040  176.1  0.0017   53.5  0.9267   -1.8
 0.050  0.5132  -12.3  39.566  171.5  0.0038   66.1  0.9288   -5.7
 0.100  0.5095  -25.0  38.736  163.9  0.0067   70.6  0.9143  -12.0
 0.150  0.4997  -37.2  37.315  156.6  0.0099   70.2  0.8868  -17.9
 0.200  0.4918  -48.4  35.647  149.9  0.0127   67.8  0.8524  -23.3
 0.250  0.4783  -59.2  33.690  143.5  0.0151   65.6  0.8140  -28.1
 0.300  0.4704  -69.2  31.867  137.9  0.0174   63.2  0.7732  -32.5
 0.350  0.4611  -78.3  29.988  132.7  0.0194   61.3  0.7330  -36.3
 0.400  0.4526  -86.5  28.174  128.0  0.0212   59.7  0.6944  -39.7
 0.450  0.4445  -94.2  26.456  123.8  0.0228   58.3  0.6577  -42.7
 0.500  0.4387 -101.2  24.851  119.9  0.0243   57.2  0.6236  -45.4
 0.600  0.4289 -113.4  22.025  113.0  0.0269   55.5  0.5632  -50.1
 0.700  0.4224 -123.9  19.633  107.3  0.0293   54.5  0.5122  -53.9
 0.800  0.4187 -132.5  17.616  102.4  0.0316   53.9  0.4695  -57.2
 0.900  0.4172 -140.2  15.945   98.1  0.0338   53.5  0.4331  -60.0
 1.000  0.4169 -147.0  14.513   94.2  0.0360   53.3  0.4013  -62.8
 1.100  0.4173 -152.9  13.289   90.8  0.0382   53.1  0.3745  -65.2
 1.200  0.4196 -158.3  12.232   87.6  0.0404   53.0  0.3498  -67.7
 1.300  0.4210 -163.0  11.319   84.7  0.0426   52.8  0.3287  -70.0
 1.400  0.4231 -167.4  10.521   82.0  0.0448   52.5  0.3095  -72.4
 1.500  0.4251 -171.4   9.827   79.5  0.0471   52.3  0.2919  -74.6
 1.600  0.4281 -175.1   9.207   77.0  0.0494   52.0  0.2767  -76.9
 1.700  0.4302 -178.9   8.659   74.8  0.0517   51.6  0.2618  -79.1
 1.800  0.4322  178.1   8.156   72.5  0.0540   51.2  0.2488  -81.2
 1.900  0.4362  174.7   7.707   70.5  0.0563   50.8  0.2358  -84.0
 2.000  0.4358  171.9   7.309   68.5  0.0586   50.3  0.2244  -85.9
 2.200  0.4415  166.0   6.616   64.5  0.0632   49.2  0.2025  -91.1
 2.400  0.4495  160.5   6.031   60.8  0.0678   47.9  0.1827  -96.9
 2.600  0.4603  155.4   5.537   57.2  0.0723   46.5  0.1652 -103.6
 2.800  0.4691  150.8   5.112   53.9  0.0768   45.1  0.1502 -110.7
 3.000  0.4798  146.5   4.743   50.6  0.0813   43.6  0.1374 -118.6
 3.500  0.5120  136.2   4.008   42.5  0.0920   39.5  0.1183 -143.5
 4.000  0.5424  127.2   3.452   34.9  0.1026   35.1  0.1196 -168.9
 4.500  0.5662  120.1   3.009   27.5  0.1123   30.5  0.1356  171.5
 5.000  0.5807  114.4   2.656   21.0  0.1213   26.2  0.1520  157.4
 5.500  0.5968  108.4   2.383   14.7  0.1297   21.9  0.1712  145.9
 6.000  0.6180  102.7   2.167    8.4  0.1381   17.7  0.1932  135.8
 6.500  0.6403   97.5   1.987    1.8  0.1469   13.1  0.2143  127.1
 7.000  0.6574   92.2   1.837   -4.9  0.1561    8.5  0.2304  118.6
 7.500  0.6698   86.6   1.703  -11.8  0.1647    3.0  0.2525  111.3
 8.000  0.6845   80.1   1.563  -18.9  0.1701   -2.9  0.2812  104.0
 8.500  0.7044   73.3   1.418  -25.3  0.1710   -8.3  0.3179   95.8
 9.000  0.7407   67.2   1.299  -30.9  0.1715  -12.2  0.3688   88.9
 9.500  0.7946   62.8   1.209  -36.2  0.1732  -15.8  0.4286   84.5
10.000  0.8367   59.5   1.097  -41.6  0.1753  -19.4  0.4806   81.2
!
!  f       Fmin   Gammaopt  rn/50
! GHz       dB    MAG  ANG    -
 0.900      1.23  0.16 -154   0.13
 1.800      1.51  0.24 -144   0.13
 2.400      1.66  0.22 -141   0.15
 3.000      1.69  0.30 -132   0.16
 4.000      1.82  0.42 -115   0.23
 5.000      2.28  0.48  -96   0.37
 6.000      2.65  0.52  -86   0.56
!
! (c) 2009  Infineon Technologies AG, Munich