! Infineon Technologies  Discrete & RF Semiconductors
! BFP420
!
! VCE =  4.5 V,  IC =  9.0 mA
! Common Emitter S-Parameters:                            Nov 2009
# GHz  S  MA  R  50
!  f         S11            S21            S12            S22
! GHz     MAG   ANG      MAG   ANG      MAG   ANG      MAG   ANG
 0.010  0.7282   -2.9  25.319  178.7  0.0022    4.0  0.9401    0.8
 0.020  0.7335   -2.9  24.623  177.2  0.0028   31.0  0.9441   -1.4
 0.050  0.7321   -7.4  24.474  173.9  0.0044   55.1  0.9442   -3.9
 0.100  0.7278  -15.6  24.296  168.6  0.0079   66.0  0.9377   -8.2
 0.150  0.7194  -23.2  23.870  163.3  0.0116   68.2  0.9248  -12.3
 0.200  0.7111  -30.6  23.355  158.2  0.0149   67.6  0.9077  -16.2
 0.250  0.6954  -37.9  22.671  153.1  0.0183   66.0  0.8874  -19.9
 0.300  0.6819  -45.1  22.047  148.4  0.0214   64.1  0.8635  -23.5
 0.350  0.6669  -51.9  21.313  144.0  0.0242   62.1  0.8382  -26.8
 0.400  0.6522  -58.4  20.546  139.6  0.0268   60.1  0.8116  -29.9
 0.450  0.6361  -64.7  19.766  135.6  0.0292   58.2  0.7848  -32.8
 0.500  0.6203  -70.7  18.978  131.7  0.0314   56.5  0.7574  -35.6
 0.600  0.5918  -82.1  17.472  124.6  0.0352   53.3  0.7052  -40.4
 0.700  0.5672  -92.4  16.059  118.4  0.0384   50.7  0.6560  -44.7
 0.800  0.5470 -101.5  14.754  112.9  0.0412   48.6  0.6116  -48.3
 0.900  0.5295 -110.1  13.608  107.9  0.0437   46.9  0.5716  -51.6
 1.000  0.5163 -118.0  12.577  103.5  0.0459   45.5  0.5349  -54.6
 1.100  0.5050 -125.1  11.657   99.5  0.0480   44.4  0.5028  -57.2
 1.200  0.4971 -131.8  10.835   95.7  0.0500   43.5  0.4726  -59.9
 1.300  0.4901 -137.8  10.114   92.3  0.0519   42.7  0.4464  -62.1
 1.400  0.4853 -143.6   9.463   89.0  0.0537   42.0  0.4220  -64.4
 1.500  0.4811 -148.8   8.888   86.1  0.0555   41.4  0.3996  -66.5
 1.600  0.4786 -153.6   8.366   83.2  0.0573   40.9  0.3797  -68.5
 1.700  0.4755 -158.5   7.902   80.6  0.0591   40.4  0.3605  -70.6
 1.800  0.4748 -162.6   7.463   78.0  0.0608   39.9  0.3437  -72.4
 1.900  0.4743 -167.0   7.078   75.6  0.0626   39.4  0.3265  -74.6
 2.000  0.4719 -170.7   6.727   73.3  0.0644   39.0  0.3118  -76.2
 2.200  0.4730 -178.4   6.116   68.8  0.0679   38.1  0.2831  -80.1
 2.400  0.4755  174.6   5.592   64.6  0.0714   37.0  0.2568  -84.4
 2.600  0.4822  168.1   5.145   60.6  0.0749   36.0  0.2329  -88.9
 2.800  0.4888  162.2   4.758   56.9  0.0783   35.1  0.2113  -93.6
 3.000  0.4970  156.9   4.424   53.3  0.0818   34.0  0.1920  -98.5
 3.500  0.5255  144.3   3.747   44.5  0.0904   31.0  0.1519 -115.0
 4.000  0.5536  133.6   3.232   36.2  0.0991   27.8  0.1284 -135.7
 4.500  0.5763  125.2   2.819   28.4  0.1072   24.2  0.1232 -157.8
 5.000  0.5906  118.6   2.488   21.5  0.1149   20.8  0.1262 -176.1
 5.500  0.6052  112.1   2.232   14.8  0.1221   17.4  0.1361  167.5
 6.000  0.6262  105.6   2.029    8.2  0.1295   14.0  0.1510  153.2
 6.500  0.6480  100.0   1.862    1.4  0.1375   10.1  0.1677  141.6
 7.000  0.6649   94.4   1.723   -5.5  0.1461    6.1  0.1815  131.2
 7.500  0.6782   88.4   1.598  -12.5  0.1546    1.3  0.2024  122.0
 8.000  0.6918   81.8   1.466  -19.8  0.1602   -4.2  0.2306  113.0
 8.500  0.7096   74.6   1.332  -26.4  0.1616   -9.3  0.2667  103.0
 9.000  0.7452   68.3   1.222  -32.2  0.1624  -13.0  0.3176   94.8
 9.500  0.7991   63.7   1.136  -37.7  0.1643  -16.2  0.3784   89.7
10.000  0.8410   60.4   1.032  -43.4  0.1669  -19.5  0.4331   86.4
!
!  f       Fmin   Gammaopt  rn/50
! GHz       dB    MAG  ANG    -
!
! noise parameter not availible yet for this operation point!
!
! (c) 2009  Infineon Technologies AG, Munich