! Infineon Technologies  Discrete & RF Semiconductors
! BFP420
!
! VCE =  4.0 V,  IC =  35 mA
! Common Emitter S-Parameters:                            Nov 2009
# GHz  S  MA  R  50
!  f         S11            S21            S12            S22
! GHz     MAG   ANG      MAG   ANG      MAG   ANG      MAG   ANG
 0.010  0.3361   -2.0  52.000  178.8  0.0012   67.8  0.8916    3.5
 0.020  0.3438   -6.8  50.573  175.6  0.0017   74.5  0.9099   -1.6
 0.050  0.3520  -17.4  49.838  170.0  0.0032   72.2  0.9158   -6.5
 0.100  0.3536  -36.3  48.299  160.7  0.0060   73.6  0.8953  -14.3
 0.150  0.3542  -53.0  45.754  152.1  0.0086   71.0  0.8563  -21.3
 0.200  0.3576  -67.6  42.863  144.5  0.0109   68.4  0.8088  -27.3
 0.250  0.3579  -80.7  39.709  137.5  0.0129   66.1  0.7588  -32.5
 0.300  0.3618  -92.0  36.836  131.5  0.0147   64.3  0.7092  -36.9
 0.350  0.3645 -101.9  34.064  126.3  0.0163   62.9  0.6628  -40.7
 0.400  0.3679 -110.2  31.524  121.6  0.0178   61.8  0.6207  -43.9
 0.450  0.3701 -117.6  29.214  117.5  0.0191   61.0  0.5822  -46.6
 0.500  0.3725 -124.1  27.132  113.7  0.0204   60.5  0.5475  -49.1
 0.600  0.3780 -135.1  23.614  107.3  0.0228   59.8  0.4893  -53.2
 0.700  0.3834 -143.8  20.788  102.1  0.0252   59.7  0.4423  -56.4
 0.800  0.3871 -151.1  18.481   97.6  0.0275   59.7  0.4040  -59.2
 0.900  0.3925 -157.2  16.608   93.7  0.0298   59.7  0.3721  -61.7
 1.000  0.3974 -162.6  15.034   90.2  0.0322   59.7  0.3443  -64.3
 1.100  0.4011 -167.2  13.708   87.1  0.0346   59.7  0.3211  -66.5
 1.200  0.4064 -171.5  12.577   84.2  0.0370   59.5  0.2998  -69.0
 1.300  0.4102 -175.2  11.609   81.5  0.0395   59.3  0.2819  -71.1
 1.400  0.4150 -178.8  10.769   79.0  0.0419   59.0  0.2654  -73.5
 1.500  0.4180  178.0  10.040   76.7  0.0444   58.6  0.2503  -75.7
 1.600  0.4224  175.1   9.391   74.5  0.0469   58.2  0.2371  -78.0
 1.700  0.4251  171.9   8.823   72.4  0.0494   57.7  0.2244  -80.4
 1.800  0.4281  169.4   8.303   70.3  0.0519   57.1  0.2132  -82.5
 1.900  0.4329  166.7   7.839   68.4  0.0544   56.5  0.2018  -85.4
 2.000  0.4338  164.2   7.430   66.5  0.0569   55.8  0.1920  -87.4
 2.200  0.4411  159.1   6.718   62.8  0.0619   54.4  0.1730  -93.1
 2.400  0.4485  154.4   6.121   59.3  0.0668   52.7  0.1559  -99.6
 2.600  0.4601  150.0   5.616   55.8  0.0716   51.1  0.1411 -107.1
 2.800  0.4694  146.0   5.181   52.6  0.0764   49.4  0.1285 -115.3
 3.000  0.4807  142.2   4.809   49.5  0.0812   47.6  0.1184 -124.3
 3.500  0.5139  132.9   4.062   41.7  0.0925   42.9  0.1072 -152.1
 4.000  0.5442  124.5   3.497   34.2  0.1035   38.1  0.1161 -177.6
 4.500  0.5676  117.9   3.048   27.1  0.1135   33.1  0.1370  164.3
 5.000  0.5820  112.6   2.693   20.7  0.1229   28.5  0.1562  151.7
 5.500  0.5987  106.9   2.417   14.5  0.1317   24.0  0.1772  141.3
 6.000  0.6205  101.4   2.199    8.2  0.1404   19.6  0.2006  132.1
 6.500  0.6420   96.4   2.015    1.7  0.1493   14.7  0.2226  124.0
 7.000  0.6593   91.2   1.864   -4.9  0.1586    9.8  0.2392  115.9
 7.500  0.6718   85.7   1.728  -11.7  0.1673    4.2  0.2613  108.9
 8.000  0.6858   79.4   1.584  -18.7  0.1727   -1.9  0.2902  102.0
 8.500  0.7063   72.7   1.438  -25.2  0.1735   -7.3  0.3272   94.2
 9.000  0.7428   66.7   1.317  -30.6  0.1740  -11.4  0.3781   87.6
 9.500  0.7971   62.3   1.226  -35.9  0.1757  -15.0  0.4379   83.3
10.000  0.8388   59.1   1.112  -41.3  0.1777  -18.7  0.4895   80.0
!
!  f       Fmin   Gammaopt  rn/50
! GHz       dB    MAG  ANG    -
 0.900      1.64  0.30 -155   0.13
 1.800      1.90  0.37 -142   0.15
 2.400      2.10  0.34 -134   0.19
 3.000      2.11  0.40 -126   0.22
 4.000      2.25  0.50 -110   0.35
 5.000      2.73  0.54  -94   0.59
 6.000      3.16  0.59  -82   0.84
!
! (c) 2009  Infineon Technologies AG, Munich