! Infineon Technologies  Discrete & RF Semiconductors
! BFP420
!
! VCE =  4.5 V,  IC =  2.5 mA
! Common Emitter S-Parameters:                            Nov 2009
# GHz  S  MA  R  50
!  f         S11            S21            S12            S22
! GHz     MAG   ANG      MAG   ANG      MAG   ANG      MAG   ANG
 0.010  0.9263   -2.2   8.780  179.2  0.0012   19.1  0.9883    0.2
 0.020  0.9354   -1.5   8.543  178.8  0.0021   56.9  0.9882   -0.8
 0.050  0.9347   -3.9   8.566  176.7  0.0045   73.3  0.9886   -2.0
 0.100  0.9324   -8.1   8.600  173.7  0.0087   77.9  0.9873   -4.3
 0.150  0.9290  -12.1   8.581  170.6  0.0130   78.7  0.9842   -6.4
 0.200  0.9269  -16.0   8.548  167.6  0.0174   77.9  0.9796   -8.5
 0.250  0.9209  -20.0   8.470  164.4  0.0216   76.2  0.9745  -10.6
 0.300  0.9154  -24.0   8.436  161.4  0.0257   74.5  0.9674  -12.7
 0.350  0.9087  -28.0   8.363  158.5  0.0298   72.6  0.9594  -14.8
 0.400  0.9020  -31.9   8.275  155.6  0.0337   70.7  0.9500  -16.7
 0.450  0.8944  -35.9   8.185  152.6  0.0377   68.8  0.9404  -18.8
 0.500  0.8851  -39.7   8.080  149.7  0.0414   66.9  0.9292  -20.7
 0.600  0.8672  -47.4   7.856  143.9  0.0485   62.9  0.9056  -24.6
 0.700  0.8471  -54.9   7.613  138.5  0.0550   59.2  0.8793  -28.2
 0.800  0.8271  -62.0   7.326  133.4  0.0609   55.7  0.8520  -31.5
 0.900  0.8067  -69.1   7.057  128.4  0.0663   52.3  0.8236  -34.8
 1.000  0.7868  -76.0   6.787  123.7  0.0712   49.1  0.7951  -37.8
 1.100  0.7679  -82.5   6.509  119.3  0.0755   46.2  0.7670  -40.7
 1.200  0.7495  -89.0   6.242  114.8  0.0794   43.3  0.7385  -43.5
 1.300  0.7329  -95.1   5.986  110.9  0.0830   40.7  0.7119  -46.0
 1.400  0.7165 -101.2   5.739  106.9  0.0861   38.1  0.6852  -48.5
 1.500  0.7022 -106.9   5.506  103.3  0.0889   35.8  0.6596  -50.8
 1.600  0.6895 -112.4   5.283   99.6  0.0912   33.5  0.6350  -52.9
 1.700  0.6758 -118.0   5.076   96.3  0.0935   31.5  0.6117  -55.0
 1.800  0.6648 -123.0   4.862   93.0  0.0954   29.5  0.5898  -56.9
 1.900  0.6539 -128.3   4.677   89.9  0.0971   27.6  0.5675  -58.9
 2.000  0.6439 -133.0   4.495   86.9  0.0986   25.9  0.5479  -60.5
 2.200  0.6272 -142.6   4.170   81.1  0.1012   22.6  0.5087  -64.0
 2.400  0.6141 -151.7   3.876   75.6  0.1032   19.6  0.4725  -67.3
 2.600  0.6070 -160.7   3.614   70.5  0.1045   16.9  0.4388  -70.6
 2.800  0.6016 -168.8   3.374   65.7  0.1054   14.5  0.4084  -73.6
 3.000  0.6004 -176.4   3.166   61.1  0.1061   12.4  0.3810  -76.4
 3.500  0.6087  166.1   2.727   50.2  0.1069    7.9  0.3199  -84.7
 4.000  0.6244  151.3   2.379   40.1  0.1077    4.6  0.2728  -93.8
 4.500  0.6400  139.6   2.084   30.6  0.1081    1.8  0.2385 -104.4
 5.000  0.6494  130.5   1.842   22.4  0.1084   -0.1  0.2138 -114.8
 5.500  0.6597  122.0   1.653   14.7  0.1089   -1.6  0.1946 -126.2
 6.000  0.6768  114.1   1.505    7.3  0.1104   -2.3  0.1814 -139.1
 6.500  0.6972  107.1   1.385   -0.3  0.1141   -3.3  0.1744 -152.7
 7.000  0.7128  100.5   1.282   -7.8  0.1195   -4.6  0.1699 -166.1
 7.500  0.7239   93.6   1.190  -15.3  0.1258   -6.8  0.1730  178.7
 8.000  0.7346   86.0   1.093  -23.0  0.1308  -10.2  0.1829  162.5
 8.500  0.7463   78.2   0.994  -30.1  0.1327  -13.6  0.1991  144.4
 9.000  0.7772   71.3   0.914  -36.4  0.1343  -15.8  0.2379  127.5
 9.500  0.8286   66.1   0.847  -42.5  0.1369  -17.5  0.2990  116.7
10.000  0.8687   62.4   0.766  -48.7  0.1413  -19.5  0.3650  110.5
!
!  f       Fmin   Gammaopt  rn/50
! GHz       dB    MAG  ANG    -
 0.900      0.55  0.41   33   0.20
 1.800      1.02  0.24   78   0.16
 2.400      1.11  0.26  103   0.15
 3.000      1.28  0.27  140   0.11
 4.000      1.50  0.34 -163   0.10
 5.000      1.85  0.40 -130   0.26
 6.000      2.56  0.50 -109   0.35
!
! (c) 2009  Infineon Technologies AG, Munich