! Infineon Technologies  Discrete & RF Semiconductors
! BFP420
!
! VCE =  4.5 V,  IC =  1.5 mA
! Common Emitter S-Parameters:                            Nov 2009
# GHz  S  MA  R  50
!  f         S11            S21            S12            S22
! GHz     MAG   ANG      MAG   ANG      MAG   ANG      MAG   ANG
 0.010  0.9628   -1.3   5.526  179.2  0.0009   54.1  0.9936    0.0
 0.020  0.9622   -1.2   5.350  179.2  0.0019   71.4  0.9935   -0.6
 0.050  0.9610   -3.2   5.380  177.3  0.0044   76.9  0.9940   -1.6
 0.100  0.9583   -6.6   5.407  174.8  0.0089   81.7  0.9934   -3.4
 0.150  0.9597   -9.9   5.405  172.2  0.0133   81.6  0.9912   -5.1
 0.200  0.9597  -13.1   5.397  169.7  0.0177   80.4  0.9885   -6.9
 0.250  0.9545  -16.5   5.364  166.9  0.0220   78.9  0.9852   -8.5
 0.300  0.9517  -19.8   5.362  164.4  0.0264   77.3  0.9807  -10.3
 0.350  0.9475  -23.1   5.336  161.9  0.0307   75.6  0.9755  -11.9
 0.400  0.9439  -26.3   5.304  159.3  0.0349   73.8  0.9694  -13.6
 0.450  0.9378  -29.6   5.270  156.7  0.0391   72.1  0.9633  -15.2
 0.500  0.9325  -32.8   5.229  154.1  0.0432   70.3  0.9558  -16.9
 0.600  0.9208  -39.4   5.139  149.1  0.0511   66.6  0.9398  -20.1
 0.700  0.9061  -45.8   5.039  144.2  0.0586   63.1  0.9213  -23.2
 0.800  0.8915  -52.0   4.910  139.5  0.0656   59.7  0.9016  -26.2
 0.900  0.8763  -58.3   4.790  134.8  0.0722   56.3  0.8808  -29.1
 1.000  0.8608  -64.5   4.661  130.4  0.0784   53.0  0.8590  -31.9
 1.100  0.8465  -70.4   4.523  126.2  0.0840   49.9  0.8369  -34.5
 1.200  0.8306  -76.4   4.389  121.9  0.0893   46.8  0.8137  -37.2
 1.300  0.8162  -82.2   4.256  117.9  0.0941   43.9  0.7913  -39.6
 1.400  0.8012  -88.0   4.127  113.9  0.0984   41.0  0.7687  -42.0
 1.500  0.7876  -93.3   3.999  110.3  0.1024   38.3  0.7464  -44.2
 1.600  0.7747  -98.8   3.875  106.5  0.1058   35.7  0.7241  -46.4
 1.700  0.7612 -104.2   3.756  103.0  0.1091   33.2  0.7029  -48.4
 1.800  0.7486 -109.1   3.625   99.5  0.1119   30.7  0.6823  -50.3
 1.900  0.7381 -114.4   3.517   96.2  0.1145   28.4  0.6613  -52.3
 2.000  0.7267 -119.1   3.402   93.1  0.1167   26.2  0.6425  -54.0
 2.200  0.7060 -128.9   3.200   86.8  0.1204   21.9  0.6040  -57.5
 2.400  0.6885 -138.3   3.007   81.0  0.1232   17.9  0.5677  -60.8
 2.600  0.6769 -147.7   2.829   75.4  0.1249   14.1  0.5336  -63.9
 2.800  0.6650 -156.3   2.662   70.1  0.1258   10.7  0.5024  -66.9
 3.000  0.6601 -164.4   2.516   65.1  0.1261    7.5  0.4740  -69.7
 3.500  0.6572  176.3   2.199   53.0  0.1249    0.8  0.4105  -77.1
 4.000  0.6673  160.0   1.935   42.0  0.1223   -4.4  0.3610  -85.1
 4.500  0.6790  146.8   1.706   31.7  0.1186   -8.7  0.3239  -94.1
 5.000  0.6844  136.4   1.510   22.8  0.1142  -11.5  0.2956 -103.0
 5.500  0.6920  127.0   1.357   14.5  0.1096  -13.2  0.2722 -112.3
 6.000  0.7069  118.3   1.236    6.7  0.1064  -13.5  0.2546 -122.6
 6.500  0.7260  110.7   1.140   -1.2  0.1059  -13.2  0.2427 -133.7
 7.000  0.7407  103.5   1.056   -9.1  0.1079  -12.8  0.2332 -145.2
 7.500  0.7516   96.2   0.980  -16.7  0.1118  -13.3  0.2281 -158.7
 8.000  0.7599   88.1   0.901  -24.7  0.1154  -14.9  0.2271 -174.2
 8.500  0.7685   79.9   0.819  -31.9  0.1171  -16.8  0.2285  167.9
 9.000  0.7962   72.7   0.754  -38.4  0.1188  -17.7  0.2521  148.6
 9.500  0.8465   67.3   0.697  -44.4  0.1219  -18.2  0.3065  133.8
10.000  0.8857   63.3   0.628  -50.9  0.1275  -19.1  0.3754  124.6
!
!  f       Fmin   Gammaopt  rn/50
! GHz       dB    MAG  ANG    -
 0.900      0.52  0.55   33   0.27
 1.800      1.07  0.35   77   0.21
 2.400      1.18  0.36  101   0.18
 3.000      1.41  0.36  134   0.13
 4.000      1.68  0.40 -172   0.10
 5.000      2.08  0.44 -130   0.32
 6.000      2.89  0.57 -114   0.39
!
! (c) 2009  Infineon Technologies AG, Munich