! Infineon Technologies  Discrete & RF Semiconductors
! BFP420
!
! VCE =  4.0 V,  IC =  12 mA
! Common Emitter S-Parameters:                            Nov 2009
# GHz  S  MA  R  50
!  f         S11            S21            S12            S22
! GHz     MAG   ANG      MAG   ANG      MAG   ANG      MAG   ANG
 0.010  0.6621   -2.6  30.761  178.7  0.0013   36.2  0.9409    1.1
 0.020  0.6595   -3.7  29.920  176.9  0.0019   51.6  0.9491   -1.7
 0.050  0.6585   -9.0  29.707  173.1  0.0040   65.8  0.9496   -4.7
 0.100  0.6559  -18.5  29.359  167.0  0.0075   72.4  0.9403   -9.7
 0.150  0.6442  -27.6  28.669  160.9  0.0111   71.6  0.9223  -14.5
 0.200  0.6338  -36.4  27.832  155.2  0.0144   69.7  0.8987  -19.1
 0.250  0.6184  -44.8  26.765  149.5  0.0174   67.3  0.8716  -23.3
 0.300  0.6047  -53.0  25.778  144.4  0.0202   64.7  0.8409  -27.3
 0.350  0.5887  -60.8  24.676  139.6  0.0228   62.4  0.8089  -31.0
 0.400  0.5754  -68.0  23.558  135.0  0.0251   60.3  0.7765  -34.3
 0.450  0.5603  -74.9  22.453  130.8  0.0272   58.3  0.7446  -37.4
 0.500  0.5462  -81.5  21.370  126.9  0.0290   56.7  0.7131  -40.2
 0.600  0.5234  -93.4  19.361  119.8  0.0323   53.8  0.6548  -45.2
 0.700  0.5042 -104.1  17.567  113.7  0.0351   51.7  0.6025  -49.4
 0.800  0.4891 -113.3  15.970  108.4  0.0376   50.1  0.5567  -53.0
 0.900  0.4783 -121.8  14.599  103.7  0.0398   48.9  0.5167  -56.2
 1.000  0.4703 -129.5  13.402   99.4  0.0420   47.9  0.4807  -59.2
 1.100  0.4642 -136.2  12.347   95.6  0.0440   47.3  0.4497  -61.8
 1.200  0.4602 -142.5  11.425   92.1  0.0460   46.6  0.4209  -64.5
 1.300  0.4573 -148.2  10.617   88.9  0.0480   46.2  0.3962  -66.8
 1.400  0.4557 -153.5   9.903   85.9  0.0500   45.7  0.3735  -69.2
 1.500  0.4541 -158.2   9.279   83.1  0.0520   45.3  0.3526  -71.3
 1.600  0.4552 -162.6   8.711   80.4  0.0539   45.0  0.3343  -73.5
 1.700  0.4540 -167.1   8.209   77.9  0.0559   44.6  0.3167  -75.6
 1.800  0.4545 -170.9   7.743   75.5  0.0579   44.2  0.3013  -77.6
 1.900  0.4564 -174.8   7.329   73.2  0.0598   43.8  0.2857  -80.0
 2.000  0.4549 -178.2   6.961   71.1  0.0619   43.4  0.2722  -81.8
 2.200  0.4585  174.7   6.312   66.8  0.0659   42.5  0.2462  -86.3
 2.400  0.4634  168.5   5.765   62.9  0.0699   41.4  0.2224  -91.3
 2.600  0.4725  162.5   5.296   59.0  0.0738   40.3  0.2012  -96.7
 2.800  0.4795  157.2   4.894   55.5  0.0778   39.3  0.1824 -102.5
 3.000  0.4899  152.4   4.546   52.0  0.0818   38.0  0.1659 -108.7
 3.500  0.5198  140.7   3.845   43.5  0.0914   34.6  0.1349 -129.2
 4.000  0.5492  130.7   3.315   35.5  0.1010   30.9  0.1233 -153.0
 4.500  0.5728  122.9   2.888   27.9  0.1099   26.9  0.1294 -174.7
 5.000  0.5867  116.7   2.551   21.2  0.1182   23.1  0.1400  169.0
 5.500  0.6022  110.4   2.288   14.7  0.1260   19.2  0.1553  155.2
 6.000  0.6235  104.3   2.080    8.2  0.1339   15.5  0.1743  143.4
 6.500  0.6457   98.8   1.908    1.5  0.1423   11.2  0.1935  133.5
 7.000  0.6625   93.4   1.765   -5.4  0.1512    6.9  0.2086  124.2
 7.500  0.6746   87.6   1.636  -12.3  0.1597    1.8  0.2303  116.2
 8.000  0.6892   81.0   1.501  -19.4  0.1653   -3.9  0.2589  108.2
 8.500  0.7082   74.0   1.363  -26.0  0.1664   -9.1  0.2952   99.2
 9.000  0.7437   67.8   1.249  -31.7  0.1669  -12.9  0.3460   91.7
 9.500  0.7977   63.2   1.162  -37.1  0.1688  -16.3  0.4062   87.0
10.000  0.8393   59.9   1.055  -42.7  0.1711  -19.8  0.4595   83.7
!
!  f       Fmin   Gammaopt  rn/50
! GHz       dB    MAG  ANG    -
 0.900      0.95  0.03 -151   0.13
 1.800      1.27  0.13 -152   0.12
 2.400      1.38  0.13 -160   0.14
 3.000      1.43  0.22 -145   0.13
 4.000      1.58  0.35 -123   0.17
 5.000      2.03  0.43 -103   0.28
 6.000      2.40  0.47  -91   0.43
!
! (c) 2009  Infineon Technologies AG, Munich