! Infineon Technologies  Discrete & RF Semiconductors
! BFP420
!
! VCE =  4.5 V,  IC =  25 mA
! Common Emitter S-Parameters:                            Nov 2009
# GHz  S  MA  R  50
!  f         S11            S21            S12            S22
! GHz     MAG   ANG      MAG   ANG      MAG   ANG      MAG   ANG
 0.010  0.4202   -2.6  44.774  178.4  0.0023   33.6  0.8693    2.8
 0.020  0.4208   -4.8  43.505  175.8  0.0025   35.8  0.8862   -1.6
 0.050  0.4239  -13.2  42.864  170.9  0.0038   52.6  0.8895   -5.6
 0.100  0.4223  -28.1  41.823  163.0  0.0064   63.7  0.8749  -12.3
 0.150  0.4183  -41.8  40.118  155.4  0.0092   64.8  0.8462  -18.4
 0.200  0.4157  -54.2  38.125  148.4  0.0116   63.9  0.8103  -23.8
 0.250  0.4086  -66.0  35.858  141.9  0.0139   62.4  0.7708  -28.6
 0.300  0.4046  -76.7  33.740  136.1  0.0159   61.0  0.7296  -32.9
 0.350  0.4011  -86.3  31.598  131.0  0.0176   59.8  0.6896  -36.6
 0.400  0.3989  -94.7  29.568  126.2  0.0192   58.7  0.6517  -39.8
 0.450  0.3956 -102.5  27.662  122.0  0.0207   57.9  0.6162  -42.7
 0.500  0.3938 -109.5  25.904  118.2  0.0221   57.3  0.5833  -45.3
 0.600  0.3927 -121.5  22.833  111.5  0.0246   56.3  0.5263  -49.6
 0.700  0.3924 -131.5  20.283  105.9  0.0269   55.9  0.4786  -53.1
 0.800  0.3929 -139.7  18.151  101.1  0.0292   55.7  0.4391  -56.0
 0.900  0.3951 -146.9  16.393   96.9  0.0315   55.6  0.4057  -58.7
 1.000  0.3980 -153.2  14.899   93.2  0.0337   55.6  0.3764  -61.3
 1.100  0.4008 -158.5  13.628   89.9  0.0360   55.6  0.3517  -63.5
 1.200  0.4049 -163.5  12.534   86.7  0.0382   55.5  0.3290  -66.0
 1.300  0.4078 -168.0  11.588   83.9  0.0406   55.4  0.3096  -68.1
 1.400  0.4111 -172.0  10.769   81.2  0.0429   55.2  0.2919  -70.4
 1.500  0.4137 -175.8  10.054   78.8  0.0453   54.9  0.2756  -72.5
 1.600  0.4170 -179.0   9.411   76.4  0.0476   54.6  0.2614  -74.7
 1.700  0.4203  177.4   8.850   74.2  0.0500   54.3  0.2476  -76.9
 1.800  0.4227  174.6   8.333   72.0  0.0524   53.8  0.2355  -78.9
 1.900  0.4265  171.5   7.874   70.0  0.0548   53.3  0.2231  -81.6
 2.000  0.4281  168.7   7.468   68.0  0.0571   52.8  0.2125  -83.4
 2.200  0.4340  163.2   6.756   64.1  0.0619   51.6  0.1916  -88.5
 2.400  0.4425  158.0   6.159   60.5  0.0666   50.2  0.1727  -94.3
 2.600  0.4532  153.1   5.651   57.0  0.0713   48.6  0.1557 -101.0
 2.800  0.4624  148.8   5.215   53.7  0.0759   47.2  0.1409 -108.2
 3.000  0.4737  144.8   4.842   50.5  0.0805   45.5  0.1284 -116.1
 3.500  0.5064  134.9   4.091   42.5  0.0915   41.2  0.1095 -142.1
 4.000  0.5370  126.2   3.524   34.9  0.1023   36.7  0.1113 -168.7
 4.500  0.5615  119.2   3.072   27.7  0.1120   31.9  0.1282  170.9
 5.000  0.5765  113.7   2.713   21.2  0.1213   27.5  0.1454  156.6
 5.500  0.5925  107.9   2.435   14.9  0.1298   23.1  0.1653  145.1
 6.000  0.6143  102.3   2.214    8.6  0.1383   18.8  0.1878  135.0
 6.500  0.6368   97.1   2.031    2.0  0.1472   14.1  0.2092  126.3
 7.000  0.6542   91.9   1.877   -4.6  0.1564    9.3  0.2255  117.9
 7.500  0.6668   86.3   1.741  -11.4  0.1651    3.9  0.2476  110.6
 8.000  0.6811   79.9   1.596  -18.5  0.1705   -2.2  0.2766  103.5
 8.500  0.7015   73.2   1.450  -25.0  0.1715   -7.6  0.3139   95.3
 9.000  0.7387   67.1   1.329  -30.5  0.1720  -11.6  0.3651   88.5
 9.500  0.7924   62.7   1.236  -35.8  0.1738  -15.2  0.4253   84.1
10.000  0.8350   59.4   1.122  -41.2  0.1758  -18.9  0.4772   80.8
!
!  f       Fmin   Gammaopt  rn/50
! GHz       dB    MAG  ANG    -
 0.900      1.38  0.22 -154   0.13
 1.800      1.65  0.29 -143   0.13
 2.400      1.81  0.26 -138   0.17
 3.000      1.83  0.34 -129   0.18
 4.000      1.97  0.45 -112   0.27
 5.000      2.40  0.49  -95   0.44
 6.000      2.85  0.54  -84   0.65
!
! (c) 2009  Infineon Technologies AG, Munich