! Infineon Technologies  Discrete & RF Semiconductors
! BFP420
!
! VCE =  4.0 V,  IC =  4.0 mA
! Common Emitter S-Parameters:                            Nov 2009
# GHz  S  MA  R  50
!  f         S11            S21            S12            S22
! GHz     MAG   ANG      MAG   ANG      MAG   ANG      MAG   ANG
 0.010  0.8757   -1.6  13.283  179.1  0.0012   36.0  0.9826    0.3
 0.020  0.8747   -2.1  12.914  178.4  0.0019   59.1  0.9848   -1.0
 0.050  0.8748   -4.8  12.928  175.9  0.0043   77.2  0.9847   -2.7
 0.100  0.8735  -10.2  12.946  172.3  0.0086   79.2  0.9822   -5.5
 0.150  0.8684  -15.2  12.870  168.5  0.0128   78.1  0.9767   -8.3
 0.200  0.8631  -20.0  12.766  164.9  0.0170   76.6  0.9690  -11.0
 0.250  0.8553  -25.1  12.595  161.0  0.0211   74.7  0.9598  -13.7
 0.300  0.8480  -30.1  12.465  157.5  0.0251   72.6  0.9484  -16.3
 0.350  0.8373  -35.0  12.279  154.0  0.0289   70.2  0.9355  -18.9
 0.400  0.8280  -39.7  12.067  150.5  0.0325   68.0  0.9208  -21.4
 0.450  0.8162  -44.4  11.843  147.1  0.0360   65.9  0.9055  -23.8
 0.500  0.8036  -49.1  11.597  143.8  0.0393   63.7  0.8886  -26.2
 0.600  0.7798  -58.1  11.101  137.4  0.0453   59.5  0.8539  -30.6
 0.700  0.7535  -66.7  10.571  131.4  0.0507   55.7  0.8169  -34.8
 0.800  0.7295  -74.8  10.014  125.9  0.0554   52.2  0.7803  -38.5
 0.900  0.7059  -82.7   9.493  120.7  0.0595   49.0  0.7440  -42.0
 1.000  0.6852  -90.2   8.992  115.9  0.0632   46.2  0.7088  -45.3
 1.100  0.6667  -97.2   8.506  111.5  0.0664   43.7  0.6757  -48.3
 1.200  0.6489 -104.1   8.055  107.2  0.0692   41.2  0.6431  -51.2
 1.300  0.6336 -110.5   7.633  103.3  0.0718   39.1  0.6138  -53.8
 1.400  0.6204 -116.7   7.238   99.5  0.0740   37.1  0.5853  -56.3
 1.500  0.6086 -122.4   6.880   96.1  0.0760   35.4  0.5584  -58.6
 1.600  0.5986 -128.0   6.540   92.7  0.0778   33.7  0.5336  -60.8
 1.700  0.5877 -133.4   6.232   89.5  0.0795   32.2  0.5100  -62.8
 1.800  0.5808 -138.3   5.928   86.5  0.0810   30.8  0.4885  -64.7
 1.900  0.5739 -143.4   5.662   83.6  0.0824   29.5  0.4668  -66.8
 2.000  0.5660 -147.9   5.413   80.9  0.0837   28.4  0.4479  -68.4
 2.200  0.5566 -157.0   4.971   75.6  0.0861   26.2  0.4110  -72.1
 2.400  0.5502 -165.6   4.582   70.7  0.0883   24.1  0.3770  -75.6
 2.600  0.5496 -173.8   4.242   66.0  0.0901   22.4  0.3461  -79.2
 2.800  0.5492  178.8   3.940   61.6  0.0918   21.0  0.3182  -82.7
 3.000  0.5528  172.1   3.679   57.5  0.0935   19.5  0.2931  -86.2
 3.500  0.5710  156.5   3.142   47.5  0.0974   16.5  0.2381  -96.5
 4.000  0.5931  143.4   2.725   38.2  0.1017   14.0  0.1975 -109.0
 4.500  0.6121  133.2   2.381   29.5  0.1058   11.4  0.1714 -123.7
 5.000  0.6234  125.1   2.101   21.8  0.1098    9.3  0.1552 -138.0
 5.500  0.6363  117.5   1.885   14.5  0.1138    7.1  0.1466 -153.3
 6.000  0.6558  110.3   1.715    7.5  0.1185    5.3  0.1450 -169.8
 6.500  0.6761  103.9   1.576    0.3  0.1246    2.9  0.1493  175.1
 7.000  0.6925   97.7   1.459   -7.0  0.1318    0.3  0.1547  161.8
 7.500  0.7043   91.3   1.354  -14.3  0.1393   -3.3  0.1690  148.6
 8.000  0.7164   84.1   1.243  -21.9  0.1448   -7.8  0.1911  135.3
 8.500  0.7312   76.5   1.130  -28.8  0.1466  -12.0  0.2206  121.1
 9.000  0.7635   69.9   1.037  -34.9  0.1476  -15.1  0.2682  109.1
 9.500  0.8160   65.0   0.963  -40.7  0.1498  -17.6  0.3302  102.0
10.000  0.8562   61.4   0.873  -46.7  0.1533  -20.2  0.3910   97.8
!
!  f       Fmin   Gammaopt  rn/50
! GHz       dB    MAG  ANG    -
 0.900      0.61  0.27   32   0.16
 1.800      1.03  0.14   83   0.13
 2.400      1.11  0.17  110   0.14
 3.000      1.23  0.20  153   0.11
 4.000      1.42  0.31 -151   0.11
 5.000      1.77  0.38 -123   0.23
 6.000      2.35  0.47 -104   0.33
!
! (c) 2009  Infineon Technologies AG, Munich