! Infineon Technologies  Discrete & RF Semiconductors
! BFP420
!
! VCE =  4.0 V,  IC =  2.0 mA
! Common Emitter S-Parameters:                            Nov 2009
# GHz  S  MA  R  50
!  f         S11            S21            S12            S22
! GHz     MAG   ANG      MAG   ANG      MAG   ANG      MAG   ANG
 0.010  0.9424   -1.0   7.109  179.2  0.0004   77.8  0.9930    0.1
 0.020  0.9385   -1.5   6.899  179.0  0.0019   72.9  0.9934   -0.7
 0.050  0.9354   -3.7   6.927  177.0  0.0043   83.2  0.9934   -1.9
 0.100  0.9365   -7.5   6.963  174.3  0.0090   82.7  0.9925   -3.9
 0.150  0.9342  -11.0   6.953  171.4  0.0134   82.0  0.9898   -5.9
 0.200  0.9331  -14.6   6.932  168.6  0.0178   80.3  0.9861   -7.8
 0.250  0.9297  -18.4   6.887  165.5  0.0222   78.4  0.9816   -9.8
 0.300  0.9249  -22.0   6.861  162.8  0.0265   76.7  0.9759  -11.8
 0.350  0.9193  -25.7   6.823  160.1  0.0308   74.8  0.9692  -13.6
 0.400  0.9148  -29.3   6.759  157.3  0.0349   72.8  0.9612  -15.5
 0.450  0.9076  -32.9   6.704  154.5  0.0391   70.8  0.9533  -17.4
 0.500  0.9001  -36.5   6.633  151.7  0.0430   68.9  0.9437  -19.2
 0.600  0.8855  -43.6   6.486  146.3  0.0507   65.0  0.9235  -22.8
 0.700  0.8689  -50.7   6.317  141.1  0.0578   61.3  0.9005  -26.3
 0.800  0.8516  -57.5   6.120  136.1  0.0643   57.7  0.8764  -29.5
 0.900  0.8338  -64.2   5.925  131.3  0.0703   54.2  0.8511  -32.7
 1.000  0.8162  -70.7   5.730  126.8  0.0759   50.9  0.8250  -35.7
 1.100  0.7993  -77.0   5.528  122.4  0.0809   47.9  0.7993  -38.5
 1.200  0.7819  -83.3   5.330  118.0  0.0856   44.8  0.7725  -41.3
 1.300  0.7666  -89.3   5.135  114.0  0.0897   42.0  0.7472  -43.9
 1.400  0.7514  -95.3   4.948  110.0  0.0933   39.2  0.7217  -46.3
 1.500  0.7368 -100.9   4.771  106.3  0.0968   36.7  0.6969  -48.6
 1.600  0.7250 -106.5   4.596  102.6  0.0995   34.2  0.6731  -50.9
 1.700  0.7106 -111.9   4.434   99.2  0.1023   31.9  0.6501  -52.9
 1.800  0.6992 -117.0   4.259   95.8  0.1045   29.7  0.6284  -54.9
 1.900  0.6887 -122.3   4.112   92.6  0.1066   27.5  0.6061  -56.9
 2.000  0.6779 -127.0   3.964   89.5  0.1084   25.6  0.5864  -58.6
 2.200  0.6596 -136.7   3.698   83.5  0.1114   21.8  0.5469  -62.2
 2.400  0.6452 -146.1   3.453   77.9  0.1136   18.2  0.5097  -65.6
 2.600  0.6360 -155.2   3.232   72.5  0.1150   15.0  0.4755  -68.8
 2.800  0.6282 -163.6   3.028   67.5  0.1157   12.2  0.4444  -71.8
 3.000  0.6262 -171.4   2.850   62.7  0.1162    9.6  0.4159  -74.8
 3.500  0.6295  170.3   2.469   51.3  0.1158    4.1  0.3534  -82.7
 4.000  0.6436  154.8   2.161   40.8  0.1148    0.0  0.3050  -91.5
 4.500  0.6575  142.5   1.899   30.9  0.1133   -3.4  0.2696 -101.5
 5.000  0.6648  132.9   1.679   22.4  0.1114   -5.6  0.2436 -111.3
 5.500  0.6746  124.0   1.507   14.5  0.1097   -7.1  0.2231 -121.9
 6.000  0.6912  115.8   1.373    6.9  0.1092   -7.5  0.2085 -133.7
 6.500  0.7106  108.5   1.264   -0.8  0.1112   -7.9  0.1999 -146.3
 7.000  0.7260  101.7   1.171   -8.5  0.1152   -8.5  0.1941 -159.0
 7.500  0.7373   94.7   1.087  -16.1  0.1205  -10.1  0.1945 -173.5
 8.000  0.7468   86.8   0.998  -24.0  0.1249  -12.8  0.2008  170.5
 8.500  0.7572   78.8   0.908  -31.1  0.1268  -15.5  0.2125  152.5
 9.000  0.7861   71.8   0.834  -37.5  0.1282  -17.2  0.2463  134.8
 9.500  0.8370   66.5   0.773  -43.5  0.1310  -18.4  0.3060  122.6
10.000  0.8764   62.7   0.698  -49.8  0.1358  -20.0  0.3739  115.5
!
!  f       Fmin   Gammaopt  rn/50
! GHz       dB    MAG  ANG    -
 0.900      0.53  0.47   33   0.22
 1.800      1.03  0.29   77   0.17
 2.400      1.13  0.31  102   0.16
 3.000      1.32  0.31  136   0.12
 4.000      1.57  0.37 -168   0.10
 5.000      1.96  0.42 -129   0.28
 6.000      2.72  0.51 -111   0.37
!
! (c) 2009  Infineon Technologies AG, Munich