! Infineon Technologies  Discrete & RF Semiconductors
! BFP420
!
! VCE =  4.0 V,  IC =  0.5 mA
! Common Emitter S-Parameters:                            Nov 2009
# GHz  S  MA  R  50
!  f         S11            S21            S12            S22
! GHz     MAG   ANG      MAG   ANG      MAG   ANG      MAG   ANG
 0.010  0.9922   -1.5   1.994  179.4  0.0008   80.6  0.9992   -0.1
 0.020  0.9836   -1.0   1.933  179.5  0.0019   85.3  0.9981   -0.4
 0.050  0.9838   -2.6   1.947  178.1  0.0045   86.1  0.9981   -1.2
 0.100  0.9812   -5.1   1.956  175.9  0.0091   86.2  0.9982   -2.6
 0.150  0.9819   -7.5   1.961  173.8  0.0138   85.1  0.9969   -3.8
 0.200  0.9832   -9.8   1.960  171.7  0.0183   83.7  0.9953   -5.1
 0.250  0.9824  -12.4   1.955  169.3  0.0230   82.4  0.9933   -6.4
 0.300  0.9793  -14.8   1.958  167.3  0.0276   80.8  0.9906   -7.7
 0.350  0.9773  -17.4   1.957  165.2  0.0322   79.3  0.9877   -8.9
 0.400  0.9761  -19.9   1.952  163.1  0.0367   77.8  0.9841  -10.2
 0.450  0.9737  -22.4   1.948  161.0  0.0412   76.3  0.9807  -11.4
 0.500  0.9716  -24.9   1.943  158.8  0.0457   74.7  0.9762  -12.7
 0.600  0.9663  -29.9   1.927  154.5  0.0546   71.5  0.9669  -15.2
 0.700  0.9592  -35.0   1.916  150.3  0.0632   68.3  0.9561  -17.7
 0.800  0.9523  -39.9   1.892  146.1  0.0717   65.3  0.9445  -19.9
 0.900  0.9438  -45.0   1.870  142.0  0.0798   62.1  0.9316  -22.3
 1.000  0.9358  -50.0   1.845  138.1  0.0878   59.1  0.9185  -24.6
 1.100  0.9280  -54.9   1.816  134.2  0.0954   56.2  0.9044  -26.7
 1.200  0.9191  -59.9   1.790  130.1  0.1028   53.1  0.8894  -29.0
 1.300  0.9105  -64.8   1.762  126.4  0.1097   50.2  0.8748  -31.0
 1.400  0.9016  -69.8   1.734  122.5  0.1163   47.1  0.8595  -33.1
 1.500  0.8933  -74.6   1.707  119.0  0.1226   44.3  0.8438  -35.1
 1.600  0.8839  -79.4   1.677  115.2  0.1283   41.4  0.8283  -37.0
 1.700  0.8742  -84.2   1.650  111.7  0.1339   38.6  0.8127  -38.9
 1.800  0.8645  -88.9   1.616  108.1  0.1388   35.8  0.7974  -40.7
 1.900  0.8567  -93.7   1.589  104.7  0.1437   33.1  0.7814  -42.5
 2.000  0.8464  -98.2   1.557  101.4  0.1479   30.5  0.7669  -44.2
 2.200  0.8287 -107.5   1.502   94.7  0.1557   25.2  0.7365  -47.5
 2.400  0.8113 -116.8   1.447   88.2  0.1621   20.0  0.7067  -50.8
 2.600  0.7964 -126.1   1.391   81.9  0.1668   14.9  0.6780  -53.9
 2.800  0.7818 -135.0   1.332   75.9  0.1698   10.2  0.6507  -56.9
 3.000  0.7725 -143.6   1.283   70.1  0.1718    5.5  0.6258  -59.8
 3.500  0.7586 -164.7   1.164   56.1  0.1718   -5.1  0.5680  -67.2
 4.000  0.7575  176.5   1.054   43.1  0.1671  -14.1  0.5224  -74.9
 4.500  0.7618  160.8   0.945   31.0  0.1588  -22.4  0.4879  -83.4
 5.000  0.7617  148.1   0.845   20.6  0.1467  -29.2  0.4598  -92.0
 5.500  0.7643  137.0   0.764   11.3  0.1323  -34.4  0.4336 -100.8
 6.000  0.7745  126.8   0.700    2.7  0.1180  -37.2  0.4142 -109.9
 6.500  0.7907  117.9   0.647   -5.5  0.1067  -38.1  0.4019 -119.7
 7.000  0.8047  109.6   0.601  -13.7  0.0981  -37.0  0.3910 -130.0
 7.500  0.8137  101.3   0.559  -21.2  0.0924  -34.8  0.3816 -141.6
 8.000  0.8168   92.3   0.513  -29.0  0.0887  -32.2  0.3739 -154.8
 8.500  0.8177   83.3   0.467  -35.9  0.0864  -28.9  0.3628 -170.0
 9.000  0.8393   75.5   0.429  -41.9  0.0871  -24.7  0.3676  172.6
 9.500  0.8863   69.5   0.395  -47.3  0.0913  -20.8  0.4064  156.1
10.000  0.9235   65.0   0.355  -52.8  0.0994  -18.5  0.4728  143.3
!
!  f       Fmin   Gammaopt  rn/50
! GHz       dB    MAG  ANG    -
 0.900      0.68  0.78   35   0.65
 1.800      1.42  0.60   75   0.50
 2.400      1.57  0.58   98   0.37
 3.000      2.10  0.58  128   0.24
 4.000      2.49  0.57  177   0.09
!
! (c) 2009  Infineon Technologies AG, Munich