! Infineon Technologies  Discrete & RF Semiconductors
! BFP420
!
! VCE =  4.5 V,  IC =  8.0 mA
! Common Emitter S-Parameters:                            Nov 2009
# GHz  S  MA  R  50
!  f         S11            S21            S12            S22
! GHz     MAG   ANG      MAG   ANG      MAG   ANG      MAG   ANG
 0.010  0.7582   -1.5  23.344  178.7  0.0028   10.3  0.9474    0.9
 0.020  0.7611   -2.8  22.643  177.4  0.0027   34.1  0.9507   -1.4
 0.050  0.7644   -7.0  22.532  174.2  0.0046   55.3  0.9509   -3.7
 0.100  0.7562  -14.5  22.401  169.2  0.0081   67.5  0.9450   -7.7
 0.150  0.7501  -21.8  22.064  164.2  0.0118   69.0  0.9337  -11.6
 0.200  0.7406  -28.7  21.645  159.3  0.0154   68.4  0.9181  -15.3
 0.250  0.7276  -35.6  21.066  154.4  0.0187   67.1  0.9001  -18.9
 0.300  0.7132  -42.4  20.560  149.9  0.0220   65.0  0.8782  -22.3
 0.350  0.6987  -48.9  19.939  145.5  0.0249   63.0  0.8551  -25.5
 0.400  0.6836  -55.1  19.282  141.3  0.0277   61.0  0.8302  -28.6
 0.450  0.6681  -61.2  18.618  137.3  0.0302   59.0  0.8051  -31.4
 0.500  0.6526  -67.1  17.931  133.5  0.0326   57.2  0.7791  -34.1
 0.600  0.6232  -78.0  16.607  126.5  0.0367   53.7  0.7287  -39.0
 0.700  0.5968  -88.1  15.346  120.3  0.0401   51.0  0.6808  -43.2
 0.800  0.5737  -97.2  14.157  114.7  0.0431   48.6  0.6366  -46.9
 0.900  0.5548 -105.7  13.101  109.7  0.0457   46.6  0.5966  -50.3
 1.000  0.5389 -113.7  12.152  105.1  0.0481   45.1  0.5594  -53.3
 1.100  0.5264 -120.8  11.289  101.0  0.0502   43.7  0.5268  -56.0
 1.200  0.5158 -127.6  10.518   97.1  0.0522   42.5  0.4957  -58.6
 1.300  0.5076 -133.7   9.832   93.7  0.0541   41.6  0.4688  -61.0
 1.400  0.5016 -139.6   9.211   90.4  0.0559   40.7  0.4436  -63.3
 1.500  0.4957 -144.9   8.665   87.4  0.0577   40.0  0.4203  -65.4
 1.600  0.4929 -149.9   8.162   84.4  0.0594   39.3  0.3995  -67.4
 1.700  0.4888 -154.8   7.716   81.7  0.0611   38.7  0.3795  -69.5
 1.800  0.4863 -159.2   7.294   79.1  0.0628   38.2  0.3621  -71.2
 1.900  0.4851 -163.7   6.921   76.6  0.0645   37.6  0.3443  -73.4
 2.000  0.4823 -167.6   6.583   74.2  0.0662   37.2  0.3290  -74.9
 2.200  0.4809 -175.5   5.989   69.6  0.0695   36.2  0.2990  -78.9
 2.400  0.4832  177.2   5.481   65.4  0.0728   35.1  0.2716  -82.9
 2.600  0.4894  170.4   5.046   61.2  0.0760   34.0  0.2467  -87.2
 2.800  0.4940  164.4   4.666   57.4  0.0792   33.1  0.2242  -91.7
 3.000  0.5030  158.8   4.341   53.8  0.0825   32.1  0.2041  -96.2
 3.500  0.5300  145.8   3.682   44.8  0.0905   29.3  0.1615 -111.5
 4.000  0.5578  134.8   3.177   36.5  0.0988   26.3  0.1346 -130.7
 4.500  0.5804  126.2   2.771   28.5  0.1065   22.8  0.1255 -152.1
 5.000  0.5937  119.4   2.446   21.5  0.1138   19.6  0.1256 -170.5
 5.500  0.6091  112.7   2.194   14.8  0.1207   16.4  0.1330  172.5
 6.000  0.6290  106.3   1.995    8.2  0.1279   13.1  0.1461  157.4
 6.500  0.6512  100.5   1.831    1.3  0.1358    9.4  0.1615  145.2
 7.000  0.6679   94.8   1.694   -5.7  0.1443    5.5  0.1746  134.3
 7.500  0.6803   88.8   1.571  -12.7  0.1527    0.8  0.1951  124.7
 8.000  0.6940   82.0   1.442  -20.0  0.1583   -4.6  0.2229  115.2
 8.500  0.7123   74.9   1.310  -26.7  0.1598   -9.5  0.2586  104.8
 9.000  0.7472   68.6   1.202  -32.5  0.1606  -13.2  0.3092   96.2
 9.500  0.8006   63.9   1.118  -38.1  0.1626  -16.3  0.3702   91.0
10.000  0.8423   60.4   1.014  -43.8  0.1652  -19.6  0.4255   87.6
!
!  f       Fmin   Gammaopt  rn/50
! GHz       dB    MAG  ANG    -
 0.900      0.79  0.08   30   0.13
 1.800      1.14  0.06  171   0.12
 2.400      1.24  0.10  160   0.13
 3.000      1.32  0.17 -165   0.12
 4.000      1.46  0.32 -132   0.14
 5.000      1.85  0.39 -110   0.25
 6.000      2.30  0.46  -95   0.37
!
! (c) 2009  Infineon Technologies AG, Munich