! Infineon Technologies  Discrete & RF Semiconductors
! BFP420
!
! VCE =  4.5 V,  IC =  12 mA
! Common Emitter S-Parameters:                            Nov 2009
# GHz  S  MA  R  50
!  f         S11            S21            S12            S22
! GHz     MAG   ANG      MAG   ANG      MAG   ANG      MAG   ANG
 0.010  0.6468   -1.6  30.685  178.6  0.0021   18.2  0.9175    1.2
 0.020  0.6534   -3.2  29.748  176.8  0.0027   33.7  0.9257   -1.6
 0.050  0.6473   -8.8  29.493  173.1  0.0044   52.7  0.9268   -4.4
 0.100  0.6469  -18.4  29.135  167.1  0.0076   63.3  0.9181   -9.4
 0.150  0.6389  -27.2  28.464  161.1  0.0109   66.0  0.9015  -14.0
 0.200  0.6281  -35.9  27.653  155.5  0.0141   65.5  0.8794  -18.4
 0.250  0.6141  -44.2  26.628  149.9  0.0171   64.0  0.8538  -22.5
 0.300  0.5994  -52.3  25.666  144.8  0.0198   62.1  0.8248  -26.4
 0.350  0.5854  -60.0  24.597  140.1  0.0223   60.3  0.7945  -29.9
 0.400  0.5718  -67.1  23.514  135.5  0.0246   58.5  0.7638  -33.1
 0.450  0.5574  -74.0  22.432  131.4  0.0266   56.9  0.7335  -36.1
 0.500  0.5434  -80.6  21.364  127.4  0.0284   55.4  0.7033  -38.9
 0.600  0.5212  -92.4  19.397  120.3  0.0317   52.8  0.6477  -43.7
 0.700  0.5019 -103.0  17.621  114.3  0.0345   50.9  0.5974  -47.7
 0.800  0.4861 -112.5  16.035  108.9  0.0369   49.5  0.5532  -51.3
 0.900  0.4755 -120.9  14.674  104.2  0.0392   48.3  0.5144  -54.4
 1.000  0.4675 -128.6  13.483   99.9  0.0413   47.5  0.4796  -57.2
 1.100  0.4609 -135.4  12.430   96.1  0.0434   46.9  0.4493  -59.7
 1.200  0.4572 -141.7  11.507   92.5  0.0453   46.3  0.4212  -62.3
 1.300  0.4541 -147.4  10.702   89.3  0.0473   45.9  0.3973  -64.5
 1.400  0.4527 -152.8   9.983   86.3  0.0493   45.5  0.3749  -66.8
 1.500  0.4513 -157.6   9.356   83.5  0.0512   45.2  0.3547  -68.9
 1.600  0.4517 -162.0   8.784   80.8  0.0532   44.8  0.3365  -70.9
 1.700  0.4509 -166.5   8.283   78.3  0.0551   44.5  0.3192  -73.0
 1.800  0.4509 -170.3   7.813   75.9  0.0571   44.1  0.3040  -74.8
 1.900  0.4522 -174.3   7.399   73.6  0.0591   43.7  0.2884  -77.2
 2.000  0.4521 -177.8   7.025   71.4  0.0611   43.4  0.2751  -78.8
 2.200  0.4552  175.2   6.374   67.1  0.0651   42.5  0.2491  -83.1
 2.400  0.4604  168.9   5.821   63.2  0.0690   41.4  0.2254  -87.8
 2.600  0.4694  162.9   5.350   59.3  0.0729   40.3  0.2038  -92.9
 2.800  0.4762  157.6   4.942   55.7  0.0769   39.4  0.1844  -98.3
 3.000  0.4858  152.7   4.591   52.3  0.0808   38.1  0.1673 -104.1
 3.500  0.5163  141.0   3.885   43.8  0.0904   34.7  0.1337 -123.7
 4.000  0.5458  131.0   3.349   35.8  0.1000   31.1  0.1185 -147.4
 4.500  0.5693  123.1   2.919   28.1  0.1088   27.1  0.1218 -170.1
 5.000  0.5836  116.9   2.578   21.4  0.1171   23.3  0.1310  172.5
 5.500  0.5996  110.6   2.312   14.9  0.1249   19.5  0.1454  157.8
 6.000  0.6199  104.4   2.102    8.4  0.1328   15.8  0.1638  145.2
 6.500  0.6428   99.0   1.929    1.7  0.1411   11.6  0.1827  134.9
 7.000  0.6601   93.5   1.784   -5.1  0.1501    7.3  0.1977  125.3
 7.500  0.6717   87.7   1.654  -12.1  0.1586    2.2  0.2193  117.1
 8.000  0.6866   81.2   1.518  -19.3  0.1642   -3.5  0.2480  108.9
 8.500  0.7061   74.1   1.379  -25.9  0.1654   -8.7  0.2847   99.7
 9.000  0.7417   67.9   1.264  -31.6  0.1661  -12.6  0.3357   92.1
 9.500  0.7957   63.4   1.177  -37.0  0.1679  -15.9  0.3961   87.3
10.000  0.8378   60.0   1.068  -42.6  0.1703  -19.4  0.4496   84.1
!
!  f       Fmin   Gammaopt  rn/50
! GHz       dB    MAG  ANG    -
 0.900      0.95  0.03 -151   0.13
 1.800      1.27  0.13 -152   0.12
 2.400      1.38  0.13 -160   0.14
 3.000      1.43  0.22 -145   0.13
 4.000      1.58  0.35 -123   0.17
 5.000      2.03  0.43 -103   0.28
 6.000      2.40  0.47  -91   0.43
!
! (c) 2009  Infineon Technologies AG, Munich