! Infineon Technologies  Discrete & RF Semiconductors
! BFP420
!
! VCE =  4.5 V,  IC =  6.0 mA
! Common Emitter S-Parameters:                            Nov 2009
# GHz  S  MA  R  50
!  f         S11            S21            S12            S22
! GHz     MAG   ANG      MAG   ANG      MAG   ANG      MAG   ANG
 0.010  0.8294   -1.6  18.735  178.8  0.0021   13.6  0.9616    0.6
 0.020  0.8249   -2.4  18.199  177.9  0.0027   41.7  0.9648   -1.2
 0.050  0.8240   -6.0  18.155  175.0  0.0044   60.5  0.9647   -3.2
 0.100  0.8193  -12.5  18.111  170.6  0.0083   70.1  0.9608   -6.7
 0.150  0.8126  -18.6  17.918  166.2  0.0122   71.7  0.9523  -10.1
 0.200  0.8063  -24.7  17.681  161.8  0.0160   71.1  0.9408  -13.3
 0.250  0.7935  -30.6  17.311  157.4  0.0197   69.4  0.9271  -16.4
 0.300  0.7822  -36.6  17.014  153.3  0.0232   67.5  0.9103  -19.5
 0.350  0.7692  -42.4  16.625  149.3  0.0265   65.4  0.8917  -22.5
 0.400  0.7557  -47.9  16.203  145.4  0.0297   63.3  0.8714  -25.2
 0.450  0.7409  -53.4  15.760  141.6  0.0326   61.3  0.8507  -27.9
 0.500  0.7261  -58.7  15.300  138.0  0.0353   59.3  0.8284  -30.5
 0.600  0.6965  -68.9  14.378  131.1  0.0402   55.6  0.7845  -35.3
 0.700  0.6685  -78.4  13.459  124.9  0.0444   52.2  0.7403  -39.5
 0.800  0.6432  -87.1  12.552  119.3  0.0479   49.3  0.6985  -43.3
 0.900  0.6200  -95.5  11.733  114.1  0.0510   46.8  0.6591  -46.7
 1.000  0.6008 -103.3  10.973  109.5  0.0538   44.6  0.6219  -49.9
 1.100  0.5837 -110.4  10.265  105.2  0.0561   42.8  0.5883  -52.6
 1.200  0.5692 -117.4   9.620  101.1  0.0584   41.1  0.5562  -55.4
 1.300  0.5578 -123.8   9.037   97.4  0.0604   39.7  0.5276  -57.8
 1.400  0.5478 -129.8   8.507   93.9  0.0622   38.4  0.5007  -60.2
 1.500  0.5387 -135.3   8.031   90.7  0.0640   37.3  0.4757  -62.3
 1.600  0.5329 -140.6   7.587   87.6  0.0656   36.2  0.4531  -64.4
 1.700  0.5257 -145.9   7.194   84.7  0.0672   35.3  0.4315  -66.4
 1.800  0.5215 -150.5   6.815   81.9  0.0687   34.5  0.4121  -68.2
 1.900  0.5174 -155.3   6.482   79.3  0.0702   33.7  0.3927  -70.3
 2.000  0.5128 -159.4   6.174   76.8  0.0717   33.0  0.3760  -71.8
 2.200  0.5080 -168.0   5.638   71.8  0.0746   31.6  0.3431  -75.5
 2.400  0.5063 -175.8   5.171   67.4  0.0773   30.3  0.3128  -79.2
 2.600  0.5104  176.7   4.769   63.0  0.0799   29.1  0.2854  -83.1
 2.800  0.5137  170.2   4.416   59.0  0.0825   28.1  0.2606  -86.9
 3.000  0.5198  164.1   4.113   55.1  0.0852   27.1  0.2385  -90.8
 3.500  0.5436  150.0   3.494   45.8  0.0917   24.4  0.1899 -103.5
 4.000  0.5695  138.2   3.023   37.1  0.0986   21.8  0.1559 -119.2
 4.500  0.5913  128.9   2.637   28.9  0.1051   18.8  0.1381 -137.7
 5.000  0.6036  121.7   2.327   21.7  0.1114   16.1  0.1301 -155.1
 5.500  0.6179  114.5   2.087   14.7  0.1174   13.3  0.1303 -172.6
 6.000  0.6379  107.8   1.898    8.0  0.1237   10.6  0.1372  170.6
 6.500  0.6594  101.8   1.743    1.0  0.1311    7.4  0.1485  156.7
 7.000  0.6759   95.9   1.613   -6.1  0.1392    3.9  0.1588  144.5
 7.500  0.6884   89.8   1.496  -13.2  0.1473   -0.4  0.1775  133.4
 8.000  0.7016   82.9   1.373  -20.6  0.1530   -5.5  0.2037  122.4
 8.500  0.7183   75.6   1.248  -27.4  0.1547  -10.2  0.2377  110.4
 9.000  0.7524   69.1   1.146  -33.3  0.1556  -13.7  0.2877  100.6
 9.500  0.8059   64.4   1.066  -39.0  0.1576  -16.6  0.3491   94.9
10.000  0.8471   60.8   0.966  -44.9  0.1606  -19.7  0.4065   91.3
!
!  f       Fmin   Gammaopt  rn/50
! GHz       dB    MAG  ANG    -
 0.900      0.70  0.16   29   0.14
 1.800      1.08  0.06  113   0.12
 2.400      1.17  0.11  132   0.13
 3.000      1.26  0.17  176   0.11
 4.000      1.43  0.31 -139   0.13
 5.000      1.82  0.38 -115   0.24
 6.000      2.30  0.43  -99   0.37
!
! (c) 2009  Infineon Technologies AG, Munich