! Infineon Technologies  Discrete & RF Semiconductors
! BFP420
!
! VCE =  4.5 V,  IC =  35 mA
! Common Emitter S-Parameters:                            Nov 2009
# GHz  S  MA  R  50
!  f         S11            S21            S12            S22
! GHz     MAG   ANG      MAG   ANG      MAG   ANG      MAG   ANG
 0.010  0.3069   -2.7  50.903  178.7  0.0015   69.0  0.8544    3.4
 0.020  0.3225   -5.7  49.429  175.5  0.0019   49.2  0.8792   -1.3
 0.050  0.3268  -17.2  48.651  170.1  0.0033   63.3  0.8857   -6.0
 0.100  0.3333  -35.6  47.209  161.2  0.0059   66.7  0.8679  -13.5
 0.150  0.3359  -52.2  44.855  152.9  0.0084   66.5  0.8328  -20.2
 0.200  0.3418  -66.6  42.160  145.4  0.0107   65.4  0.7895  -26.0
 0.250  0.3431  -79.7  39.201  138.5  0.0126   64.0  0.7437  -31.0
 0.300  0.3476  -91.1  36.473  132.6  0.0144   62.7  0.6974  -35.3
 0.350  0.3521 -100.9  33.828  127.3  0.0159   61.5  0.6539  -39.0
 0.400  0.3552 -109.2  31.376  122.6  0.0174   60.6  0.6141  -42.1
 0.450  0.3593 -116.7  29.140  118.5  0.0188   60.0  0.5775  -44.8
 0.500  0.3622 -123.4  27.109  114.7  0.0200   59.8  0.5444  -47.2
 0.600  0.3686 -134.2  23.668  108.3  0.0224   59.3  0.4883  -51.1
 0.700  0.3745 -143.2  20.872  103.0  0.0248   59.3  0.4429  -54.3
 0.800  0.3795 -150.4  18.584   98.4  0.0271   59.4  0.4055  -57.0
 0.900  0.3844 -156.6  16.711   94.4  0.0294   59.4  0.3744  -59.5
 1.000  0.3902 -162.1  15.142   90.9  0.0318   59.5  0.3471  -61.9
 1.100  0.3945 -166.7  13.817   87.8  0.0342   59.5  0.3245  -64.0
 1.200  0.3998 -171.0  12.684   84.8  0.0365   59.4  0.3034  -66.4
 1.300  0.4041 -174.8  11.712   82.1  0.0390   59.2  0.2855  -68.4
 1.400  0.4088 -178.4  10.868   79.6  0.0415   58.9  0.2692  -70.7
 1.500  0.4115  178.3  10.139   77.3  0.0439   58.6  0.2542  -72.8
 1.600  0.4159  175.4   9.486   75.0  0.0464   58.2  0.2410  -75.0
 1.700  0.4196  172.3   8.913   72.9  0.0488   57.7  0.2282  -77.2
 1.800  0.4224  169.8   8.388   70.8  0.0513   57.1  0.2171  -79.2
 1.900  0.4268  167.0   7.921   68.8  0.0539   56.5  0.2056  -81.9
 2.000  0.4286  164.5   7.510   66.9  0.0564   55.9  0.1957  -83.8
 2.200  0.4353  159.4   6.790   63.2  0.0613   54.5  0.1763  -89.1
 2.400  0.4438  154.6   6.188   59.7  0.0661   52.9  0.1585  -95.2
 2.600  0.4552  150.2   5.677   56.2  0.0709   51.2  0.1428 -102.2
 2.800  0.4647  146.1   5.239   53.0  0.0757   49.6  0.1293 -109.9
 3.000  0.4762  142.3   4.863   49.8  0.0805   47.8  0.1179 -118.5
 3.500  0.5091  133.0   4.107   42.0  0.0917   43.1  0.1026 -146.2
 4.000  0.5399  124.6   3.539   34.6  0.1027   38.4  0.1083 -173.2
 4.500  0.5635  118.0   3.085   27.4  0.1127   33.4  0.1278  167.2
 5.000  0.5786  112.7   2.726   21.0  0.1221   28.8  0.1464  153.7
 5.500  0.5948  107.0   2.448   14.7  0.1308   24.2  0.1672  142.7
 6.000  0.6162  101.5   2.226    8.5  0.1395   19.8  0.1905  133.1
 6.500  0.6390   96.4   2.041    2.0  0.1484   15.0  0.2124  124.7
 7.000  0.6559   91.3   1.888   -4.7  0.1577   10.1  0.2289  116.5
 7.500  0.6686   85.8   1.750  -11.4  0.1664    4.5  0.2512  109.4
 8.000  0.6831   79.5   1.605  -18.5  0.1718   -1.5  0.2802  102.5
 8.500  0.7032   72.8   1.458  -24.9  0.1728   -7.0  0.3177   94.5
 9.000  0.7404   66.9   1.335  -30.4  0.1733  -11.1  0.3690   87.9
 9.500  0.7942   62.4   1.243  -35.7  0.1750  -14.7  0.4291   83.6
10.000  0.8364   59.2   1.128  -41.0  0.1771  -18.4  0.4811   80.3
!
!  f       Fmin   Gammaopt  rn/50
! GHz       dB    MAG  ANG    -
 0.900      1.64  0.30 -155   0.13
 1.800      1.90  0.37 -142   0.15
 2.400      2.10  0.34 -134   0.19
 3.000      2.11  0.40 -126   0.22
 4.000      2.25  0.50 -110   0.35
 5.000      2.73  0.54  -94   0.59
 6.000      3.16  0.59  -82   0.84
!
! (c) 2009  Infineon Technologies AG, Munich