! Infineon Technologies  Discrete & RF Semiconductors
! BFP420
!
! VCE =  4.5 V,  IC =  20 mA
! Common Emitter S-Parameters:                            Nov 2009
# GHz  S  MA  R  50
!  f         S11            S21            S12            S22
! GHz     MAG   ANG      MAG   ANG      MAG   ANG      MAG   ANG
 0.010  0.4829   -0.5  40.642  178.4  0.0023   29.2  0.8808    2.2
 0.020  0.4901   -4.1  39.322  176.0  0.0026   29.8  0.8954   -1.6
 0.050  0.4895  -11.7  38.803  171.6  0.0039   51.6  0.8975   -5.3
 0.100  0.4896  -24.7  38.010  164.2  0.0068   62.6  0.8847  -11.4
 0.150  0.4837  -36.5  36.674  157.1  0.0097   64.5  0.8602  -17.1
 0.200  0.4765  -47.6  35.106  150.6  0.0124   63.7  0.8286  -22.2
 0.250  0.4655  -58.4  33.266  144.3  0.0148   62.3  0.7933  -26.8
 0.300  0.4563  -68.2  31.532  138.7  0.0170   60.9  0.7555  -31.1
 0.350  0.4476  -77.3  29.740  133.6  0.0189   59.4  0.7183  -34.8
 0.400  0.4410  -85.5  27.996  128.9  0.0207   58.0  0.6823  -38.0
 0.450  0.4346  -93.2  26.335  124.6  0.0223   56.9  0.6477  -41.0
 0.500  0.4286 -100.2  24.775  120.7  0.0238   56.0  0.6152  -43.7
 0.600  0.4201 -112.5  22.015  113.9  0.0264   54.6  0.5579  -48.2
 0.700  0.4151 -123.0  19.671  108.2  0.0288   53.8  0.5090  -51.8
 0.800  0.4114 -131.8  17.675  103.2  0.0311   53.4  0.4678  -55.0
 0.900  0.4101 -139.5  16.016   98.8  0.0332   53.0  0.4326  -57.8
 1.000  0.4109 -146.4  14.594   94.9  0.0354   52.9  0.4018  -60.5
 1.100  0.4112 -152.2  13.369   91.5  0.0376   52.8  0.3756  -62.7
 1.200  0.4135 -157.6  12.317   88.2  0.0398   52.7  0.3513  -65.2
 1.300  0.4151 -162.4  11.406   85.3  0.0420   52.6  0.3308  -67.4
 1.400  0.4182 -167.0  10.605   82.5  0.0442   52.4  0.3119  -69.7
 1.500  0.4194 -171.0   9.910   80.0  0.0465   52.2  0.2945  -71.8
 1.600  0.4226 -174.6   9.285   77.5  0.0487   51.9  0.2794  -73.9
 1.700  0.4252 -178.4   8.735   75.2  0.0510   51.6  0.2647  -76.1
 1.800  0.4267  178.5   8.229   73.0  0.0533   51.2  0.2519  -78.0
 1.900  0.4310  175.1   7.778   70.9  0.0556   50.8  0.2386  -80.6
 2.000  0.4312  172.2   7.377   68.9  0.0579   50.3  0.2274  -82.4
 2.200  0.4370  166.2   6.679   64.9  0.0625   49.3  0.2053  -87.3
 2.400  0.4445  160.7   6.092   61.2  0.0671   47.9  0.1851  -92.8
 2.600  0.4559  155.6   5.593   57.6  0.0715   46.6  0.1670  -99.1
 2.800  0.4647  151.1   5.162   54.2  0.0760   45.2  0.1511 -105.8
 3.000  0.4756  146.7   4.794   50.9  0.0805   43.7  0.1374 -113.2
 3.500  0.5074  136.4   4.049   42.8  0.0912   39.6  0.1146 -137.6
 4.000  0.5383  127.4   3.489   35.1  0.1017   35.3  0.1124 -163.9
 4.500  0.5620  120.2   3.041   27.8  0.1112   30.7  0.1265  174.9
 5.000  0.5772  114.5   2.686   21.3  0.1203   26.4  0.1420  159.9
 5.500  0.5934  108.5   2.410   14.9  0.1287   22.2  0.1609  147.6
 6.000  0.6146  102.8   2.191    8.6  0.1371   18.0  0.1827  137.1
 6.500  0.6373   97.5   2.010    2.0  0.1458   13.4  0.2037  128.0
 7.000  0.6548   92.2   1.858   -4.7  0.1550    8.8  0.2197  119.4
 7.500  0.6664   86.6   1.723  -11.5  0.1636    3.4  0.2417  111.9
 8.000  0.6818   80.2   1.580  -18.7  0.1691   -2.6  0.2707  104.5
 8.500  0.7022   73.4   1.436  -25.1  0.1701   -7.9  0.3078   96.2
 9.000  0.7384   67.3   1.315  -30.7  0.1707  -11.9  0.3590   89.2
 9.500  0.7928   62.8   1.224  -36.0  0.1724  -15.4  0.4192   84.8
10.000  0.8352   59.6   1.111  -41.5  0.1746  -19.1  0.4715   81.5
!
!  f       Fmin   Gammaopt  rn/50
! GHz       dB    MAG  ANG    -
 0.900      1.23  0.16 -154   0.13
 1.800      1.51  0.24 -144   0.13
 2.400      1.66  0.22 -141   0.15
 3.000      1.69  0.30 -132   0.16
 4.000      1.82  0.42 -115   0.23
 5.000      2.28  0.48  -96   0.37
 6.000      2.65  0.52  -86   0.56
!
! (c) 2009  Infineon Technologies AG, Munich