! Infineon Technologies  Discrete & RF Semiconductors
! BFP420
!
! VCE =  4.0 V,  IC =  30 mA
! Common Emitter S-Parameters:                            Nov 2009
# GHz  S  MA  R  50
!  f         S11            S21            S12            S22
! GHz     MAG   ANG      MAG   ANG      MAG   ANG      MAG   ANG
 0.010  0.3878   -3.3  49.197  178.7  0.0013   65.9  0.8956    3.0
 0.020  0.3892   -5.7  47.898  175.7  0.0017   66.2  0.9138   -1.6
 0.050  0.3941  -15.9  47.231  170.3  0.0034   72.3  0.9183   -6.3
 0.100  0.3937  -32.4  45.888  161.6  0.0062   73.3  0.8991  -13.7
 0.150  0.3914  -47.7  43.669  153.3  0.0089   70.6  0.8634  -20.4
 0.200  0.3901  -61.5  41.130  145.9  0.0113   67.9  0.8194  -26.3
 0.250  0.3865  -74.1  38.311  139.1  0.0135   65.8  0.7725  -31.4
 0.300  0.3847  -85.2  35.725  133.1  0.0154   63.7  0.7251  -35.9
 0.350  0.3851  -95.0  33.183  127.9  0.0170   62.1  0.6801  -39.7
 0.400  0.3842 -103.5  30.820  123.2  0.0186   60.9  0.6386  -43.0
 0.450  0.3840 -111.2  28.661  119.0  0.0200   60.0  0.6003  -45.8
 0.500  0.3849 -117.9  26.689  115.3  0.0213   59.4  0.5657  -48.4
 0.600  0.3862 -129.3  23.334  108.7  0.0237   58.5  0.5066  -52.5
 0.700  0.3893 -138.7  20.599  103.4  0.0261   58.2  0.4584  -56.0
 0.800  0.3918 -146.4  18.349   98.8  0.0284   58.1  0.4189  -58.9
 0.900  0.3953 -152.9  16.513   94.7  0.0307   58.0  0.3858  -61.6
 1.000  0.3996 -158.8  14.969   91.2  0.0330   58.0  0.3570  -64.2
 1.100  0.4022 -163.7  13.662   88.0  0.0354   58.0  0.3331  -66.4
 1.200  0.4068 -168.3  12.544   85.0  0.0377   57.9  0.3109  -68.9
 1.300  0.4107 -172.3  11.584   82.3  0.0401   57.7  0.2921  -71.1
 1.400  0.4145 -176.1  10.751   79.7  0.0425   57.4  0.2752  -73.5
 1.500  0.4171 -179.6  10.027   77.4  0.0450   57.1  0.2594  -75.7
 1.600  0.4219  177.5   9.382   75.1  0.0474   56.7  0.2459  -78.1
 1.700  0.4245  174.2   8.815   72.9  0.0499   56.3  0.2326  -80.4
 1.800  0.4269  171.5   8.297   70.8  0.0524   55.7  0.2210  -82.6
 1.900  0.4319  168.6   7.836   68.9  0.0548   55.1  0.2093  -85.4
 2.000  0.4328  166.0   7.427   67.0  0.0573   54.5  0.1992  -87.4
 2.200  0.4387  160.7   6.717   63.2  0.0622   53.2  0.1796  -93.0
 2.400  0.4474  155.8   6.121   59.7  0.0671   51.6  0.1619  -99.4
 2.600  0.4587  151.3   5.616   56.2  0.0718   50.0  0.1465 -106.8
 2.800  0.4682  147.0   5.181   52.9  0.0765   48.5  0.1336 -114.7
 3.000  0.4785  143.2   4.810   49.8  0.0813   46.7  0.1229 -123.5
 3.500  0.5119  133.6   4.062   41.9  0.0925   42.1  0.1103 -150.7
 4.000  0.5427  125.1   3.499   34.4  0.1034   37.5  0.1178 -176.0
 4.500  0.5664  118.4   3.048   27.2  0.1134   32.5  0.1379  165.6
 5.000  0.5806  113.0   2.693   20.8  0.1227   28.0  0.1565  152.7
 5.500  0.5970  107.3   2.417   14.5  0.1314   23.5  0.1772  142.1
 6.000  0.6182  101.7   2.198    8.3  0.1400   19.1  0.2003  132.8
 6.500  0.6407   96.6   2.015    1.8  0.1489   14.3  0.2222  124.5
 7.000  0.6578   91.4   1.863   -4.9  0.1582    9.4  0.2386  116.4
 7.500  0.6702   85.9   1.727  -11.7  0.1668    3.9  0.2607  109.4
 8.000  0.6851   79.6   1.584  -18.7  0.1723   -2.2  0.2895  102.4
 8.500  0.7049   72.8   1.438  -25.1  0.1731   -7.6  0.3265   94.5
 9.000  0.7411   66.9   1.317  -30.7  0.1735  -11.6  0.3773   87.8
 9.500  0.7956   62.5   1.225  -35.9  0.1753  -15.3  0.4372   83.5
10.000  0.8378   59.2   1.112  -41.3  0.1772  -19.0  0.4888   80.2
!
!  f       Fmin   Gammaopt  rn/50
! GHz       dB    MAG  ANG    -
 0.900      1.51  0.26 -155   0.13
 1.800      1.78  0.33 -142   0.14
 2.400      1.96  0.30 -136   0.18
 3.000      1.98  0.38 -127   0.20
 4.000      2.11  0.47 -111   0.31
 5.000      2.57  0.53  -94   0.51
 6.000      3.00  0.57  -82   0.74
!
! (c) 2009  Infineon Technologies AG, Munich