! Infineon Technologies  Discrete & RF Semiconductors
! BFP420
!
! VCE =  4.0 V,  IC =  8.0 mA
! Common Emitter S-Parameters:                            Nov 2009
# GHz  S  MA  R  50
!  f         S11            S21            S12            S22
! GHz     MAG   ANG      MAG   ANG      MAG   ANG      MAG   ANG
 0.010  0.7530   -1.3  23.309  178.8  0.0013   29.5  0.9611    0.7
 0.020  0.7585   -2.7  22.605  177.5  0.0019   52.5  0.9658   -1.4
 0.050  0.7576   -7.0  22.513  174.3  0.0043   69.3  0.9661   -3.8
 0.100  0.7526  -14.6  22.398  169.2  0.0081   74.7  0.9599   -8.0
 0.150  0.7456  -22.1  22.057  164.1  0.0119   73.9  0.9480  -12.0
 0.200  0.7370  -29.0  21.632  159.2  0.0156   71.8  0.9319  -15.8
 0.250  0.7219  -36.1  21.048  154.2  0.0190   69.8  0.9129  -19.4
 0.300  0.7089  -42.9  20.531  149.6  0.0223   67.3  0.8902  -23.0
 0.350  0.6952  -49.5  19.904  145.3  0.0254   64.8  0.8660  -26.3
 0.400  0.6805  -55.8  19.243  141.0  0.0282   62.6  0.8402  -29.4
 0.450  0.6638  -61.8  18.566  137.1  0.0308   60.4  0.8141  -32.3
 0.500  0.6486  -67.7  17.874  133.2  0.0332   58.4  0.7873  -35.1
 0.600  0.6205  -78.8  16.537  126.2  0.0373   54.6  0.7351  -40.1
 0.700  0.5938  -89.0  15.269  119.9  0.0408   51.7  0.6856  -44.5
 0.800  0.5714  -98.1  14.074  114.4  0.0438   49.2  0.6402  -48.3
 0.900  0.5538 -106.6  13.020  109.3  0.0465   47.1  0.5989  -51.7
 1.000  0.5380 -114.5  12.066  104.8  0.0489   45.5  0.5608  -54.9
 1.100  0.5260 -121.7  11.206  100.7  0.0510   44.1  0.5271  -57.6
 1.200  0.5164 -128.4  10.434   96.8  0.0530   42.8  0.4956  -60.4
 1.300  0.5084 -134.6   9.750   93.4  0.0550   41.9  0.4678  -62.8
 1.400  0.5021 -140.4   9.135   90.1  0.0568   40.9  0.4421  -65.2
 1.500  0.4964 -145.7   8.589   87.1  0.0585   40.2  0.4185  -67.4
 1.600  0.4941 -150.7   8.088   84.1  0.0602   39.4  0.3973  -69.5
 1.700  0.4900 -155.7   7.644   81.4  0.0620   38.8  0.3772  -71.6
 1.800  0.4879 -159.8   7.227   78.8  0.0636   38.3  0.3591  -73.5
 1.900  0.4873 -164.4   6.858   76.3  0.0654   37.7  0.3413  -75.7
 2.000  0.4842 -168.2   6.518   74.0  0.0671   37.2  0.3258  -77.4
 2.200  0.4832 -176.2   5.932   69.4  0.0704   36.1  0.2956  -81.5
 2.400  0.4855  176.6   5.427   65.1  0.0738   35.0  0.2681  -85.7
 2.600  0.4921  169.9   4.997   61.0  0.0770   34.0  0.2432  -90.3
 2.800  0.4976  164.0   4.621   57.2  0.0802   33.0  0.2211  -95.0
 3.000  0.5059  158.4   4.298   53.6  0.0835   32.0  0.2012  -99.9
 3.500  0.5329  145.5   3.643   44.6  0.0916   29.1  0.1602 -116.1
 4.000  0.5607  134.5   3.144   36.3  0.0999   26.0  0.1361 -136.2
 4.500  0.5829  126.0   2.742   28.3  0.1075   22.6  0.1301 -157.4
 5.000  0.5964  119.2   2.420   21.4  0.1149   19.3  0.1323 -175.2
 5.500  0.6116  112.5   2.171   14.6  0.1219   16.0  0.1413  168.8
 6.000  0.6319  106.1   1.974    8.0  0.1290   12.8  0.1555  154.6
 6.500  0.6535  100.4   1.812    1.1  0.1370    9.1  0.1717  143.0
 7.000  0.6708   94.7   1.676   -5.8  0.1455    5.2  0.1851  132.6
 7.500  0.6820   88.7   1.554  -12.9  0.1538    0.4  0.2059  123.3
 8.000  0.6962   82.0   1.427  -20.2  0.1594   -5.0  0.2337  114.2
 8.500  0.7140   74.8   1.295  -26.9  0.1608  -10.0  0.2692  104.0
 9.000  0.7488   68.4   1.188  -32.7  0.1615  -13.6  0.3197   95.6
 9.500  0.8020   63.8   1.105  -38.2  0.1634  -16.7  0.3804   90.5
10.000  0.8436   60.4   1.002  -43.9  0.1660  -20.0  0.4354   87.1
!
!  f       Fmin   Gammaopt  rn/50
! GHz       dB    MAG  ANG    -
 0.900      0.79  0.08   30   0.13
 1.800      1.14  0.06  171   0.12
 2.400      1.24  0.10  160   0.13
 3.000      1.32  0.17 -165   0.12
 4.000      1.46  0.32 -132   0.14
 5.000      1.85  0.39 -110   0.25
 6.000      2.30  0.46  -95   0.37
!
! (c) 2009  Infineon Technologies AG, Munich