! Infineon Technologies  Discrete & RF Semiconductors
! BFP420
!
! VCE =  4.5 V,  IC =  1.0 mA
! Common Emitter S-Parameters:                            Nov 2009
# GHz  S  MA  R  50
!  f         S11            S21            S12            S22
! GHz     MAG   ANG      MAG   ANG      MAG   ANG      MAG   ANG
 0.010  0.9771   -0.9   3.694  179.4  0.0008   33.8  0.9974    0.0
 0.020  0.9736   -1.1   3.564  179.4  0.0018   72.7  0.9959   -0.5
 0.050  0.9765   -2.9   3.587  177.6  0.0044   81.4  0.9963   -1.4
 0.100  0.9754   -5.8   3.612  175.4  0.0089   84.0  0.9960   -3.0
 0.150  0.9734   -8.7   3.612  173.1  0.0134   83.0  0.9944   -4.4
 0.200  0.9740  -11.5   3.612  170.8  0.0179   81.7  0.9924   -5.9
 0.250  0.9720  -14.4   3.596  168.2  0.0223   80.4  0.9899   -7.4
 0.300  0.9683  -17.2   3.596  166.1  0.0267   78.9  0.9865   -8.9
 0.350  0.9660  -20.1   3.590  163.8  0.0312   77.4  0.9828  -10.3
 0.400  0.9637  -23.0   3.574  161.4  0.0355   75.7  0.9779  -11.7
 0.450  0.9597  -25.9   3.562  159.1  0.0398   74.1  0.9736  -13.2
 0.500  0.9559  -28.8   3.542  156.7  0.0441   72.5  0.9678  -14.6
 0.600  0.9472  -34.6   3.502  152.1  0.0524   69.0  0.9560  -17.4
 0.700  0.9368  -40.3   3.456  147.6  0.0605   65.6  0.9420  -20.2
 0.800  0.9262  -45.9   3.392  143.2  0.0681   62.4  0.9268  -22.9
 0.900  0.9150  -51.6   3.332  138.8  0.0754   59.1  0.9104  -25.5
 1.000  0.9027  -57.2   3.265  134.6  0.0825   55.9  0.8929  -28.0
 1.100  0.8914  -62.7   3.193  130.5  0.0890   52.9  0.8754  -30.5
 1.200  0.8787  -68.3   3.123  126.3  0.0953   49.8  0.8565  -32.9
 1.300  0.8668  -73.6   3.050  122.5  0.1010   46.8  0.8381  -35.2
 1.400  0.8543  -79.1   2.980  118.6  0.1064   43.8  0.8189  -37.4
 1.500  0.8432  -84.2   2.907  115.0  0.1114   41.0  0.7996  -39.6
 1.600  0.8308  -89.4   2.838  111.2  0.1157   38.1  0.7802  -41.6
 1.700  0.8183  -94.5   2.769  107.7  0.1201   35.5  0.7617  -43.6
 1.800  0.8077  -99.4   2.690  104.2  0.1237   32.8  0.7434  -45.5
 1.900  0.7975 -104.5   2.627  100.8  0.1273   30.2  0.7244  -47.4
 2.000  0.7862 -109.2   2.555   97.6  0.1303   27.8  0.7071  -49.1
 2.200  0.7652 -118.8   2.430   91.1  0.1355   23.0  0.6715  -52.6
 2.400  0.7461 -128.3   2.308   84.9  0.1397   18.3  0.6376  -55.9
 2.600  0.7322 -137.8   2.191   79.0  0.1423   13.9  0.6049  -59.0
 2.800  0.7182 -146.5   2.076   73.4  0.1438    9.7  0.5745  -62.0
 3.000  0.7108 -155.0   1.977   68.0  0.1445    5.9  0.5470  -64.8
 3.500  0.7014 -175.3   1.752   55.1  0.1429   -2.7  0.4845  -72.1
 4.000  0.7058  167.2   1.559   43.3  0.1388   -9.6  0.4355  -79.7
 4.500  0.7137  152.8   1.382   32.2  0.1324  -15.6  0.3980  -88.3
 5.000  0.7165  141.5   1.227   22.7  0.1243  -20.0  0.3692  -96.7
 5.500  0.7214  131.2   1.105   13.9  0.1154  -22.9  0.3438 -105.5
 6.000  0.7349  122.0   1.008    5.8  0.1074  -23.7  0.3246 -114.9
 6.500  0.7525  113.8   0.931   -2.3  0.1026  -23.2  0.3114 -125.0
 7.000  0.7671  106.1   0.864  -10.4  0.1006  -21.8  0.3006 -135.6
 7.500  0.7769   98.4   0.802  -18.2  0.1012  -20.7  0.2921 -147.8
 8.000  0.7830   89.9   0.737  -26.2  0.1027  -20.5  0.2861 -162.0
 8.500  0.7884   81.3   0.671  -33.4  0.1035  -20.5  0.2798 -178.5
 9.000  0.8134   73.9   0.616  -39.9  0.1052  -19.7  0.2919  162.7
 9.500  0.8632   68.2   0.569  -45.9  0.1090  -18.7  0.3383  146.3
10.000  0.9015   64.1   0.512  -52.1  0.1156  -18.6  0.4063  134.9
!
!  f       Fmin   Gammaopt  rn/50
! GHz       dB    MAG  ANG    -
 0.900      0.53  0.67   34   0.35
 1.800      1.15  0.44   77   0.27
 2.400      1.28  0.44  100   0.22
 3.000      1.61  0.45  131   0.15
 4.000      1.90  0.47 -177   0.09
 5.000      2.32  0.44 -133   0.45
 6.000      3.43  0.60 -118   0.25
!
! (c) 2009  Infineon Technologies AG, Munich