! Infineon Technologies  Discrete & RF Semiconductors
! BFP420
!
! VCE =  4.0 V,  IC =  3.0 mA
! Common Emitter S-Parameters:                            Nov 2009
# GHz  S  MA  R  50
!  f         S11            S21            S12            S22
! GHz     MAG   ANG      MAG   ANG      MAG   ANG      MAG   ANG
 0.010  0.9046   -1.5  10.305  179.1  0.0009   52.1  0.9878    0.2
 0.020  0.9052   -1.7  10.018  178.7  0.0019   65.4  0.9893   -0.9
 0.050  0.9031   -4.5  10.040  176.4  0.0046   76.9  0.9896   -2.3
 0.100  0.9032   -8.9  10.073  173.2  0.0088   80.7  0.9875   -4.8
 0.150  0.9008  -13.1  10.033  169.9  0.0131   79.9  0.9836   -7.1
 0.200  0.8989  -17.5   9.984  166.6  0.0174   78.5  0.9780   -9.5
 0.250  0.8925  -21.9   9.878  163.1  0.0217   76.5  0.9713  -11.8
 0.300  0.8863  -26.3   9.818  160.0  0.0257   74.4  0.9628  -14.1
 0.350  0.8774  -30.5   9.710  156.9  0.0298   72.3  0.9531  -16.4
 0.400  0.8704  -34.7   9.588  153.7  0.0337   70.2  0.9418  -18.6
 0.450  0.8606  -39.0   9.459  150.6  0.0375   68.0  0.9302  -20.8
 0.500  0.8511  -43.1   9.308  147.5  0.0411   66.0  0.9166  -22.9
 0.600  0.8302  -51.4   9.003  141.5  0.0479   61.9  0.8887  -27.1
 0.700  0.8084  -59.3   8.666  135.8  0.0541   58.0  0.8583  -30.9
 0.800  0.7873  -66.8   8.292  130.5  0.0596   54.4  0.8270  -34.5
 0.900  0.7652  -74.3   7.943  125.4  0.0645   51.1  0.7951  -37.9
 1.000  0.7448  -81.4   7.593  120.7  0.0690   48.0  0.7632  -41.2
 1.100  0.7259  -88.1   7.242  116.2  0.0729   45.1  0.7327  -44.1
 1.200  0.7081  -94.8   6.910  111.8  0.0764   42.3  0.7020  -47.0
 1.300  0.6911 -101.1   6.598  107.8  0.0795   39.9  0.6736  -49.6
 1.400  0.6758 -107.3   6.298  103.9  0.0822   37.5  0.6455  -52.1
 1.500  0.6622 -113.0   6.017  100.4  0.0847   35.3  0.6188  -54.4
 1.600  0.6508 -118.7   5.753   96.8  0.0867   33.3  0.5939  -56.6
 1.700  0.6388 -124.1   5.507   93.5  0.0888   31.4  0.5701  -58.7
 1.800  0.6285 -129.2   5.260   90.3  0.0904   29.6  0.5478  -60.6
 1.900  0.6202 -134.4   5.046   87.2  0.0921   27.9  0.5255  -62.7
 2.000  0.6110 -139.0   4.834   84.5  0.0934   26.5  0.5058  -64.4
 2.200  0.5962 -148.5   4.467   78.8  0.0959   23.6  0.4671  -67.9
 2.400  0.5863 -157.5   4.137   73.5  0.0978   20.9  0.4311  -71.4
 2.600  0.5827 -166.2   3.847   68.6  0.0992   18.6  0.3981  -74.8
 2.800  0.5790 -173.9   3.582   64.0  0.1003   16.6  0.3684  -78.0
 3.000  0.5804  178.7   3.355   59.6  0.1014   14.8  0.3418  -81.1
 3.500  0.5925  162.1   2.879   49.0  0.1033   10.9  0.2826  -90.2
 4.000  0.6116  148.0   2.506   39.2  0.1055    8.1  0.2379 -100.6
 4.500  0.6294  136.9   2.192   30.0  0.1073    5.5  0.2066 -112.7
 5.000  0.6396  128.2   1.936   22.1  0.1092    3.5  0.1851 -124.7
 5.500  0.6512  120.0   1.737   14.6  0.1112    1.9  0.1702 -137.8
 6.000  0.6688  112.5   1.580    7.3  0.1141    0.7  0.1618 -152.4
 6.500  0.6891  105.7   1.454   -0.1  0.1189   -0.9  0.1597 -167.2
 7.000  0.7049   99.3   1.346   -7.5  0.1250   -2.7  0.1600  178.9
 7.500  0.7167   92.6   1.248  -14.9  0.1318   -5.6  0.1686  164.6
 8.000  0.7276   85.2   1.147  -22.6  0.1371   -9.5  0.1849  149.4
 8.500  0.7412   77.4   1.043  -29.6  0.1390  -13.3  0.2084  133.0
 9.000  0.7718   70.7   0.958  -35.9  0.1402  -15.8  0.2519  118.5
 9.500  0.8236   65.6   0.889  -41.8  0.1426  -17.9  0.3142  109.6
10.000  0.8644   62.0   0.805  -47.9  0.1465  -20.1  0.3782  104.6
!
!  f       Fmin   Gammaopt  rn/50
! GHz       dB    MAG  ANG    -
 0.900      0.57  0.35   33   0.18
 1.800      1.02  0.20   79   0.14
 2.400      1.10  0.23  104   0.14
 3.000      1.25  0.24  144   0.11
 4.000      1.46  0.33 -159   0.10
 5.000      1.90  0.39 -128   0.22
 6.000      2.46  0.48 -107   0.35
!
! (c) 2009  Infineon Technologies AG, Munich