! Infineon Technologies  Discrete & RF Semiconductors
! BFP420
!
! VCE =  4.0 V,  IC =  1.5 mA
! Common Emitter S-Parameters:                            Nov 2009
# GHz  S  MA  R  50
!  f         S11            S21            S12            S22
! GHz     MAG   ANG      MAG   ANG      MAG   ANG      MAG   ANG
 0.010  0.9550   -1.3   5.554  179.3  0.0008   44.4  0.9953    0.0
 0.020  0.9504   -1.3   5.386  179.2  0.0019   75.8  0.9948   -0.6
 0.050  0.9559   -3.4   5.416  177.2  0.0047   82.2  0.9953   -1.7
 0.100  0.9521   -6.7   5.444  174.8  0.0091   83.6  0.9942   -3.5
 0.150  0.9496   -9.9   5.444  172.2  0.0136   82.9  0.9921   -5.3
 0.200  0.9498  -13.3   5.433  169.6  0.0180   81.2  0.9892   -7.0
 0.250  0.9453  -16.6   5.403  166.7  0.0225   79.6  0.9859   -8.8
 0.300  0.9424  -20.0   5.393  164.2  0.0268   77.9  0.9811  -10.6
 0.350  0.9371  -23.3   5.374  161.7  0.0312   76.0  0.9759  -12.3
 0.400  0.9338  -26.5   5.333  159.1  0.0355   74.2  0.9694  -13.9
 0.450  0.9287  -29.9   5.301  156.5  0.0398   72.3  0.9630  -15.6
 0.500  0.9237  -33.2   5.258  153.9  0.0439   70.5  0.9552  -17.3
 0.600  0.9110  -39.8   5.165  148.8  0.0519   66.8  0.9387  -20.6
 0.700  0.8974  -46.2   5.062  143.9  0.0595   63.1  0.9196  -23.8
 0.800  0.8826  -52.5   4.932  139.2  0.0666   59.6  0.8992  -26.9
 0.900  0.8675  -58.8   4.805  134.5  0.0733   56.2  0.8775  -29.8
 1.000  0.8523  -65.0   4.673  130.1  0.0795   52.9  0.8551  -32.7
 1.100  0.8370  -71.0   4.537  125.8  0.0852   49.8  0.8323  -35.3
 1.200  0.8221  -77.0   4.399  121.5  0.0905   46.7  0.8084  -38.0
 1.300  0.8081  -82.8   4.261  117.5  0.0953   43.8  0.7856  -40.5
 1.400  0.7934  -88.6   4.128  113.5  0.0997   40.8  0.7624  -42.9
 1.500  0.7799  -94.1   4.001  109.8  0.1037   38.1  0.7395  -45.2
 1.600  0.7674  -99.5   3.876  106.1  0.1071   35.5  0.7169  -47.4
 1.700  0.7537 -104.8   3.754  102.6  0.1104   32.9  0.6955  -49.4
 1.800  0.7425 -109.9   3.623   99.2  0.1132   30.5  0.6746  -51.4
 1.900  0.7317 -115.2   3.513   95.8  0.1158   28.1  0.6532  -53.4
 2.000  0.7200 -119.9   3.398   92.7  0.1179   26.0  0.6340  -55.1
 2.200  0.7002 -129.7   3.194   86.5  0.1217   21.7  0.5952  -58.7
 2.400  0.6837 -139.1   2.999   80.6  0.1244   17.6  0.5587  -62.0
 2.600  0.6723 -148.4   2.821   75.0  0.1261   13.9  0.5244  -65.2
 2.800  0.6616 -157.0   2.655   69.8  0.1270   10.5  0.4931  -68.2
 3.000  0.6570 -165.1   2.508   64.8  0.1273    7.3  0.4643  -71.1
 3.500  0.6557  175.6   2.190   52.8  0.1260    0.6  0.4009  -78.7
 4.000  0.6660  159.4   1.928   41.7  0.1234   -4.5  0.3516  -86.9
 4.500  0.6784  146.3   1.699   31.4  0.1197   -8.8  0.3149  -96.2
 5.000  0.6838  136.0   1.504   22.6  0.1154  -11.6  0.2874 -105.3
 5.500  0.6920  126.7   1.351   14.3  0.1108  -13.4  0.2648 -114.9
 6.000  0.7068  118.0   1.231    6.5  0.1076  -13.7  0.2480 -125.6
 6.500  0.7260  110.4   1.135   -1.4  0.1073  -13.5  0.2372 -137.0
 7.000  0.7407  103.3   1.053   -9.2  0.1093  -13.2  0.2290 -148.8
 7.500  0.7521   96.0   0.977  -16.9  0.1131  -13.8  0.2254 -162.4
 8.000  0.7602   87.9   0.897  -24.8  0.1167  -15.5  0.2266 -178.0
 8.500  0.7686   79.8   0.816  -32.0  0.1183  -17.4  0.2308  164.3
 9.000  0.7961   72.6   0.750  -38.6  0.1198  -18.3  0.2567  145.6
 9.500  0.8465   67.2   0.693  -44.5  0.1229  -18.8  0.3126  131.5
10.000  0.8848   63.2   0.625  -50.9  0.1283  -19.8  0.3820  122.7
!
!  f       Fmin   Gammaopt  rn/50
! GHz       dB    MAG  ANG    -
 0.900      0.52  0.55   33   0.27
 1.800      1.07  0.35   77   0.21
 2.400      1.18  0.36  101   0.18
 3.000      1.41  0.36  134   0.13
 4.000      1.68  0.40 -172   0.10
 5.000      2.08  0.44 -130   0.32
 6.000      2.89  0.57 -114   0.39
!
! (c) 2009  Infineon Technologies AG, Munich