! Infineon Technologies  Discrete & RF Semiconductors
! BFP420
!
! VCE =  4.5 V,  IC =  2.0 mA
! Common Emitter S-Parameters:                            Nov 2009
# GHz  S  MA  R  50
!  f         S11            S21            S12            S22
! GHz     MAG   ANG      MAG   ANG      MAG   ANG      MAG   ANG
 0.010  0.9501   -1.0   7.155  179.1  0.0010   23.5  0.9917    0.1
 0.020  0.9503   -1.5   6.940  179.0  0.0020   63.6  0.9911   -0.7
 0.050  0.9437   -3.6   6.970  177.0  0.0045   74.1  0.9916   -1.8
 0.100  0.9464   -7.4   7.000  174.3  0.0088   80.5  0.9907   -3.8
 0.150  0.9439  -11.0   6.997  171.4  0.0131   80.2  0.9879   -5.8
 0.200  0.9429  -14.6   6.970  168.6  0.0175   79.2  0.9844   -7.7
 0.250  0.9384  -18.3   6.924  165.6  0.0218   77.6  0.9802   -9.6
 0.300  0.9341  -21.9   6.906  162.9  0.0261   75.9  0.9744  -11.5
 0.350  0.9286  -25.6   6.862  160.2  0.0303   74.0  0.9680  -13.3
 0.400  0.9235  -29.2   6.804  157.4  0.0343   72.2  0.9602  -15.2
 0.450  0.9169  -32.7   6.747  154.6  0.0384   70.4  0.9525  -17.0
 0.500  0.9098  -36.3   6.678  151.9  0.0423   68.5  0.9431  -18.8
 0.600  0.8944  -43.4   6.526  146.4  0.0498   64.8  0.9235  -22.3
 0.700  0.8777  -50.4   6.367  141.3  0.0568   61.0  0.9011  -25.8
 0.800  0.8600  -57.2   6.162  136.3  0.0633   57.5  0.8776  -29.0
 0.900  0.8414  -63.9   5.975  131.5  0.0692   54.1  0.8527  -32.0
 1.000  0.8241  -70.4   5.775  126.9  0.0747   50.9  0.8271  -35.0
 1.100  0.8060  -76.7   5.574  122.6  0.0797   47.8  0.8018  -37.8
 1.200  0.7889  -83.0   5.375  118.2  0.0842   44.8  0.7755  -40.5
 1.300  0.7732  -88.9   5.181  114.2  0.0883   42.0  0.7507  -43.0
 1.400  0.7570  -94.9   4.993  110.2  0.0919   39.3  0.7257  -45.5
 1.500  0.7426 -100.5   4.814  106.6  0.0952   36.8  0.7013  -47.7
 1.600  0.7301 -106.0   4.639  102.8  0.0980   34.3  0.6778  -49.9
 1.700  0.7152 -111.5   4.475   99.4  0.1008   32.0  0.6552  -51.9
 1.800  0.7035 -116.5   4.301   96.0  0.1029   29.8  0.6335  -53.9
 1.900  0.6930 -121.8   4.154   92.7  0.1051   27.7  0.6115  -55.9
 2.000  0.6821 -126.5   4.002   89.7  0.1068   25.7  0.5922  -57.5
 2.200  0.6625 -136.3   3.736   83.7  0.1098   22.0  0.5528  -61.0
 2.400  0.6475 -145.6   3.488   78.0  0.1120   18.4  0.5161  -64.3
 2.600  0.6380 -154.7   3.265   72.7  0.1134   15.2  0.4820  -67.5
 2.800  0.6295 -163.1   3.058   67.7  0.1142   12.4  0.4509  -70.5
 3.000  0.6265 -171.0   2.879   62.9  0.1146    9.8  0.4227  -73.3
 3.500  0.6293  170.6   2.494   51.5  0.1143    4.3  0.3601  -81.1
 4.000  0.6429  155.2   2.184   40.9  0.1134    0.3  0.3115  -89.6
 4.500  0.6570  142.7   1.918   31.1  0.1119   -3.0  0.2756  -99.2
 5.000  0.6643  133.1   1.696   22.6  0.1101   -5.2  0.2488 -108.8
 5.500  0.6742  124.2   1.523   14.7  0.1084   -6.6  0.2274 -118.9
 6.000  0.6900  115.9   1.386    7.0  0.1080   -7.0  0.2117 -130.4
 6.500  0.7097  108.7   1.277   -0.6  0.1101   -7.4  0.2018 -142.8
 7.000  0.7249  101.8   1.183   -8.3  0.1141   -7.9  0.1945 -155.2
 7.500  0.7362   94.8   1.098  -15.9  0.1195   -9.4  0.1933 -169.7
 8.000  0.7459   87.0   1.009  -23.8  0.1240  -12.1  0.1978  174.0
 8.500  0.7561   78.9   0.917  -30.9  0.1259  -14.9  0.2067  155.5
 9.000  0.7853   71.9   0.844  -37.3  0.1275  -16.6  0.2391  137.1
 9.500  0.8363   66.6   0.781  -43.4  0.1303  -17.8  0.2979  124.4
10.000  0.8763   62.8   0.706  -49.7  0.1353  -19.3  0.3656  116.9
!
!  f       Fmin   Gammaopt  rn/50
! GHz       dB    MAG  ANG    -
 0.900      0.53  0.47   33   0.22
 1.800      1.03  0.29   77   0.17
 2.400      1.13  0.31  102   0.16
 3.000      1.32  0.31  136   0.12
 4.000      1.57  0.37 -168   0.10
 5.000      1.96  0.42 -129   0.28
 6.000      2.72  0.51 -111   0.37
!
! (c) 2009  Infineon Technologies AG, Munich