! Infineon Technologies  Discrete & RF Semiconductors
! BFP420
!
! VCE =  4.0 V,  IC =  25 mA
! Common Emitter S-Parameters:                            Nov 2009
# GHz  S  MA  R  50
!  f         S11            S21            S12            S22
! GHz     MAG   ANG      MAG   ANG      MAG   ANG      MAG   ANG
 0.010  0.4342   -3.1  45.726  178.7  0.0010   61.5  0.9027    2.4
 0.020  0.4422   -5.5  44.455  175.9  0.0018   53.4  0.9197   -1.8
 0.050  0.4438  -14.3  43.859  170.8  0.0036   68.3  0.9220   -6.0
 0.100  0.4447  -28.7  42.761  162.6  0.0065   71.6  0.9049  -13.0
 0.150  0.4379  -42.5  40.926  154.8  0.0093   70.3  0.8731  -19.3
 0.200  0.4341  -55.3  38.796  147.7  0.0120   67.9  0.8334  -25.0
 0.250  0.4252  -67.0  36.372  141.0  0.0143   65.3  0.7903  -30.0
 0.300  0.4198  -77.5  34.132  135.2  0.0162   63.3  0.7456  -34.4
 0.350  0.4153  -87.2  31.883  130.0  0.0180   61.6  0.7026  -38.3
 0.400  0.4108  -95.7  29.762  125.2  0.0197   60.2  0.6622  -41.6
 0.450  0.4073 -103.4  27.793  121.0  0.0212   59.1  0.6245  -44.6
 0.500  0.4052 -110.4  25.972  117.2  0.0225   58.2  0.5900  -47.2
 0.600  0.4018 -122.3  22.830  110.5  0.0250   57.0  0.5301  -51.6
 0.700  0.4012 -132.2  20.243  105.0  0.0274   56.5  0.4806  -55.2
 0.800  0.4007 -140.4  18.082  100.3  0.0297   56.2  0.4396  -58.3
 0.900  0.4022 -147.6  16.314   96.1  0.0319   56.0  0.4051  -61.0
 1.000  0.4048 -153.8  14.813   92.4  0.0342   56.0  0.3750  -63.7
 1.100  0.4071 -159.0  13.534   89.2  0.0365   55.9  0.3498  -66.0
 1.200  0.4106 -164.0  12.441   86.1  0.0388   55.7  0.3266  -68.6
 1.300  0.4135 -168.4  11.499   83.3  0.0411   55.6  0.3069  -70.8
 1.400  0.4171 -172.4  10.679   80.7  0.0434   55.3  0.2889  -73.2
 1.500  0.4194 -176.1   9.965   78.3  0.0458   55.0  0.2725  -75.4
 1.600  0.4229 -179.5   9.327   75.9  0.0482   54.7  0.2582  -77.7
 1.700  0.4254  177.0   8.769   73.7  0.0506   54.3  0.2443  -80.1
 1.800  0.4281  174.2   8.256   71.5  0.0530   53.8  0.2322  -82.2
 1.900  0.4325  171.1   7.799   69.5  0.0554   53.3  0.2199  -85.0
 2.000  0.4325  168.4   7.393   67.6  0.0578   52.8  0.2093  -87.0
 2.200  0.4395  162.9   6.686   63.7  0.0627   51.5  0.1887  -92.4
 2.400  0.4471  157.8   6.096   60.1  0.0674   50.1  0.1703  -98.6
 2.600  0.4581  153.0   5.594   56.6  0.0720   48.6  0.1541 -105.7
 2.800  0.4668  148.6   5.161   53.3  0.0767   47.1  0.1402 -113.4
 3.000  0.4786  144.5   4.791   50.1  0.0813   45.4  0.1289 -121.8
 3.500  0.5113  134.7   4.047   42.2  0.0923   41.0  0.1138 -148.0
 4.000  0.5419  126.0   3.485   34.6  0.1031   36.5  0.1189 -173.4
 4.500  0.5652  119.1   3.037   27.4  0.1129   31.7  0.1375  167.8
 5.000  0.5800  113.6   2.682   20.9  0.1222   27.2  0.1553  154.4
 5.500  0.5965  107.8   2.407   14.6  0.1308   22.9  0.1755  143.5
 6.000  0.6173  102.1   2.188    8.3  0.1393   18.5  0.1982  133.9
 6.500  0.6401   97.0   2.007    1.8  0.1482   13.8  0.2197  125.5
 7.000  0.6572   91.7   1.855   -4.9  0.1574    9.0  0.2360  117.2
 7.500  0.6694   86.2   1.720  -11.7  0.1660    3.5  0.2581  110.1
 8.000  0.6839   79.8   1.577  -18.7  0.1715   -2.5  0.2869  103.0
 8.500  0.7045   73.1   1.432  -25.2  0.1724   -7.9  0.3238   95.0
 9.000  0.7409   67.0   1.311  -30.7  0.1728  -11.9  0.3746   88.2
 9.500  0.7949   62.6   1.221  -36.0  0.1745  -15.5  0.4344   83.9
10.000  0.8366   59.3   1.107  -41.4  0.1765  -19.2  0.4862   80.5
!
!  f       Fmin   Gammaopt  rn/50
! GHz       dB    MAG  ANG    -
 0.900      1.38  0.22 -154   0.13
 1.800      1.65  0.29 -143   0.13
 2.400      1.81  0.26 -138   0.17
 3.000      1.83  0.34 -129   0.18
 4.000      1.97  0.45 -112   0.27
 5.000      2.40  0.49  -95   0.44
 6.000      2.85  0.54  -84   0.65
!
! (c) 2009  Infineon Technologies AG, Munich