! Infineon Technologies  Discrete & RF Semiconductors
! BFP420
!
! VCE =  4.0 V,  IC =  6.0 mA
! Common Emitter S-Parameters:                            Nov 2009
# GHz  S  MA  R  50
!  f         S11            S21            S12            S22
! GHz     MAG   ANG      MAG   ANG      MAG   ANG      MAG   ANG
 0.010  0.8287   -0.8  18.650  178.7  0.0016   33.0  0.9714    0.6
 0.020  0.8151   -2.6  18.114  177.9  0.0021   59.5  0.9753   -1.3
 0.050  0.8134   -6.2  18.078  175.0  0.0043   75.0  0.9755   -3.3
 0.100  0.8113  -12.6  18.051  170.6  0.0083   76.1  0.9708   -6.9
 0.150  0.8044  -18.8  17.857  166.1  0.0123   76.1  0.9624  -10.3
 0.200  0.7980  -24.9  17.611  161.8  0.0163   73.9  0.9504  -13.6
 0.250  0.7849  -31.0  17.245  157.3  0.0200   71.8  0.9361  -16.9
 0.300  0.7745  -36.9  16.946  153.1  0.0236   69.5  0.9187  -20.0
 0.350  0.7616  -42.8  16.557  149.2  0.0270   67.0  0.8999  -23.0
 0.400  0.7489  -48.3  16.125  145.2  0.0302   64.7  0.8790  -25.9
 0.450  0.7339  -53.9  15.689  141.4  0.0332   62.5  0.8576  -28.6
 0.500  0.7194  -59.2  15.218  137.8  0.0360   60.4  0.8348  -31.3
 0.600  0.6902  -69.5  14.293  130.9  0.0409   56.4  0.7893  -36.1
 0.700  0.6629  -79.1  13.372  124.7  0.0451   52.9  0.7442  -40.5
 0.800  0.6378  -87.9  12.467  119.1  0.0487   49.9  0.7013  -44.4
 0.900  0.6167  -96.2  11.647  113.9  0.0518   47.3  0.6608  -47.9
 1.000  0.5966 -104.1  10.888  109.2  0.0546   45.0  0.6229  -51.2
 1.100  0.5806 -111.3  10.184  104.9  0.0571   43.1  0.5885  -54.0
 1.200  0.5671 -118.1   9.539  100.9  0.0593   41.4  0.5556  -56.9
 1.300  0.5557 -124.5   8.958   97.2  0.0613   39.9  0.5264  -59.4
 1.400  0.5463 -130.5   8.430   93.7  0.0631   38.5  0.4989  -61.8
 1.500  0.5378 -136.1   7.960   90.5  0.0650   37.4  0.4736  -64.0
 1.600  0.5324 -141.4   7.518   87.3  0.0665   36.3  0.4504  -66.2
 1.700  0.5254 -146.6   7.124   84.5  0.0682   35.4  0.4286  -68.2
 1.800  0.5211 -151.2   6.749   81.7  0.0697   34.5  0.4091  -70.1
 1.900  0.5174 -156.0   6.418   79.0  0.0712   33.7  0.3892  -72.2
 2.000  0.5137 -160.1   6.114   76.6  0.0727   33.0  0.3723  -73.9
 2.200  0.5092 -168.6   5.580   71.7  0.0756   31.6  0.3391  -77.7
 2.400  0.5083 -176.4   5.118   67.2  0.0783   30.3  0.3087  -81.6
 2.600  0.5122  176.2   4.720   62.8  0.0810   29.1  0.2813  -85.7
 2.800  0.5150  169.7   4.372   58.9  0.0836   28.0  0.2566  -89.8
 3.000  0.5217  163.7   4.071   55.0  0.0863   26.9  0.2344  -94.0
 3.500  0.5462  149.7   3.459   45.7  0.0929   24.3  0.1871 -107.3
 4.000  0.5720  137.9   2.990   37.0  0.0997   21.6  0.1550 -123.9
 4.500  0.5927  128.7   2.609   28.7  0.1063   18.6  0.1397 -142.9
 5.000  0.6065  121.4   2.302   21.5  0.1126   15.8  0.1340 -160.2
 5.500  0.6205  114.4   2.065   14.6  0.1185   12.9  0.1365 -177.2
 6.000  0.6398  107.7   1.878    7.8  0.1249   10.2  0.1450  166.9
 6.500  0.6617  101.7   1.725    0.8  0.1323    7.0  0.1574  153.6
 7.000  0.6783   95.8   1.596   -6.3  0.1404    3.5  0.1685  142.0
 7.500  0.6906   89.7   1.479  -13.4  0.1485   -0.9  0.1877  131.4
 8.000  0.7035   82.7   1.358  -20.8  0.1541   -6.0  0.2142  120.8
 8.500  0.7198   75.4   1.234  -27.6  0.1556  -10.7  0.2482  109.4
 9.000  0.7539   69.0   1.133  -33.5  0.1565  -14.1  0.2981   99.9
 9.500  0.8068   64.2   1.053  -39.1  0.1585  -17.0  0.3595   94.2
10.000  0.8482   60.7   0.955  -44.9  0.1613  -20.1  0.4163   90.7
!
!  f       Fmin   Gammaopt  rn/50
! GHz       dB    MAG  ANG    -
 0.900      0.70  0.16   29   0.14
 1.800      1.08  0.06  113   0.12
 2.400      1.17  0.11  132   0.13
 3.000      1.26  0.17  176   0.11
 4.000      1.43  0.31 -139   0.13
 5.000      1.82  0.38 -115   0.24
 6.000      2.30  0.43  -99   0.37
!
! (c) 2009  Infineon Technologies AG, Munich