! Infineon Technologies  Discrete & RF Semiconductors
! BFP420
!
! VCE =  4.0 V,  IC =  1.2 mA
! Common Emitter S-Parameters:                            Nov 2009
# GHz  S  MA  R  50
!  f         S11            S21            S12            S22
! GHz     MAG   ANG      MAG   ANG      MAG   ANG      MAG   ANG
 0.010  0.9589   -1.1   4.416  179.3  0.0010   78.6  0.9966    0.0
 0.020  0.9612   -1.2   4.268  179.3  0.0019   73.2  0.9959   -0.6
 0.050  0.9591   -2.9   4.296  177.5  0.0044   85.7  0.9965   -1.5
 0.100  0.9629   -6.1   4.323  175.2  0.0091   84.5  0.9958   -3.2
 0.150  0.9613   -9.2   4.324  172.7  0.0136   83.7  0.9940   -4.8
 0.200  0.9602  -12.2   4.321  170.3  0.0181   82.1  0.9914   -6.4
 0.250  0.9572  -15.3   4.298  167.6  0.0226   80.5  0.9886   -8.0
 0.300  0.9545  -18.4   4.297  165.3  0.0271   78.8  0.9845   -9.6
 0.350  0.9511  -21.5   4.287  162.9  0.0316   77.1  0.9801  -11.2
 0.400  0.9485  -24.4   4.259  160.5  0.0359   75.3  0.9748  -12.7
 0.450  0.9445  -27.5   4.243  158.0  0.0403   73.5  0.9694  -14.3
 0.500  0.9398  -30.6   4.214  155.5  0.0446   71.8  0.9627  -15.9
 0.600  0.9295  -36.7   4.155  150.7  0.0528   68.2  0.9489  -18.9
 0.700  0.9184  -42.8   4.089  146.0  0.0608   64.7  0.9327  -21.9
 0.800  0.9058  -48.7   4.000  141.4  0.0683   61.3  0.9151  -24.8
 0.900  0.8930  -54.7   3.914  136.9  0.0754   57.9  0.8965  -27.5
 1.000  0.8797  -60.6   3.826  132.7  0.0822   54.7  0.8767  -30.2
 1.100  0.8671  -66.2   3.729  128.5  0.0884   51.5  0.8565  -32.8
 1.200  0.8536  -72.0   3.634  124.3  0.0944   48.4  0.8354  -35.4
 1.300  0.8403  -77.5   3.535  120.3  0.0997   45.4  0.8146  -37.8
 1.400  0.8268  -83.2   3.442  116.3  0.1047   42.4  0.7937  -40.1
 1.500  0.8145  -88.5   3.351  112.7  0.1094   39.6  0.7726  -42.3
 1.600  0.8024  -93.8   3.257  108.9  0.1133   36.8  0.7517  -44.4
 1.700  0.7897  -99.0   3.169  105.5  0.1173   34.2  0.7316  -46.5
 1.800  0.7786 -104.0   3.070  101.9  0.1205   31.6  0.7118  -48.4
 1.900  0.7671 -109.2   2.988   98.6  0.1236   29.1  0.6916  -50.4
 2.000  0.7555 -113.8   2.901   95.4  0.1263   26.8  0.6734  -52.1
 2.200  0.7350 -123.6   2.743   89.0  0.1308   22.1  0.6360  -55.6
 2.400  0.7179 -133.1   2.591   83.0  0.1343   17.7  0.6004  -59.0
 2.600  0.7048 -142.5   2.451   77.2  0.1365   13.4  0.5668  -62.2
 2.800  0.6921 -151.2   2.315   71.7  0.1375    9.7  0.5356  -65.2
 3.000  0.6862 -159.5   2.196   66.5  0.1380    6.1  0.5075  -68.0
 3.500  0.6802 -179.5   1.933   54.0  0.1364   -1.8  0.4442  -75.5
 4.000  0.6875  163.6   1.711   42.5  0.1327   -7.9  0.3947  -83.4
 4.500  0.6978  149.8   1.513   31.8  0.1273  -13.1  0.3577  -92.3
 5.000  0.7024  139.0   1.341   22.5  0.1207  -16.8  0.3292 -101.0
 5.500  0.7084  129.2   1.206   14.0  0.1136  -19.1  0.3052 -110.2
 6.000  0.7227  120.2   1.100    6.0  0.1077  -19.6  0.2876 -120.1
 6.500  0.7409  112.2   1.016   -2.0  0.1048  -19.2  0.2755 -130.8
 7.000  0.7559  104.8   0.942  -10.0  0.1046  -18.2  0.2660 -142.0
 7.500  0.7662   97.3   0.875  -17.7  0.1067  -17.8  0.2599 -154.8
 8.000  0.7734   89.0   0.803  -25.7  0.1092  -18.6  0.2576 -169.7
 8.500  0.7800   80.6   0.730  -32.9  0.1104  -19.5  0.2564  173.2
 9.000  0.8059   73.3   0.672  -39.4  0.1119  -19.5  0.2754  154.4
 9.500  0.8555   67.8   0.620  -45.4  0.1153  -19.2  0.3273  139.1
10.000  0.8938   63.7   0.559  -51.7  0.1213  -19.6  0.3966  128.9
!
!  f       Fmin   Gammaopt  rn/50
! GHz       dB    MAG  ANG    -
 0.900      0.53  0.62   33   0.31
 1.800      1.10  0.40   77   0.24
 2.400      1.23  0.41  100   0.20
 3.000      1.51  0.41  132   0.14
 4.000      1.80  0.44 -175   0.09
 5.000      2.23  0.45 -132   0.38
 6.000      3.18  0.57 -116   0.44
!
! (c) 2009  Infineon Technologies AG, Munich