! Infineon Technologies  Discrete & RF Semiconductors
! BFP420
!
! VCE =  4.5 V,  IC =  15 mA
! Common Emitter S-Parameters:                            Nov 2009
# GHz  S  MA  R  50
!  f         S11            S21            S12            S22
! GHz     MAG   ANG      MAG   ANG      MAG   ANG      MAG   ANG
 0.010  0.5855   -2.0  34.932  178.4  0.0025   19.6  0.9017    1.6
 0.020  0.5835   -3.9  33.909  176.5  0.0029   33.3  0.9117   -1.6
 0.050  0.5812   -9.8  33.532  172.4  0.0042   50.7  0.9128   -4.9
 0.100  0.5788  -20.7  33.019  165.8  0.0074   62.1  0.9022  -10.3
 0.150  0.5704  -30.8  32.082  159.4  0.0104   65.0  0.8825  -15.4
 0.200  0.5605  -40.6  30.980  153.3  0.0133   64.3  0.8564  -20.1
 0.250  0.5467  -49.9  29.623  147.4  0.0161   62.8  0.8265  -24.4
 0.300  0.5338  -58.8  28.358  142.1  0.0186   61.2  0.7938  -28.5
 0.350  0.5221  -67.0  26.980  137.2  0.0208   59.5  0.7602  -32.1
 0.400  0.5105  -74.7  25.614  132.5  0.0228   57.9  0.7266  -35.4
 0.450  0.4986  -82.0  24.286  128.3  0.0246   56.5  0.6942  -38.4
 0.500  0.4881  -88.7  22.999  124.4  0.0263   55.3  0.6626  -41.2
 0.600  0.4716 -101.1  20.672  117.3  0.0292   53.2  0.6057  -45.9
 0.700  0.4583 -111.8  18.631  111.4  0.0318   51.8  0.5556  -49.8
 0.800  0.4480 -120.9  16.851  106.2  0.0341   50.9  0.5125  -53.1
 0.900  0.4417 -129.1  15.349  101.6  0.0363   50.2  0.4753  -56.1
 1.000  0.4373 -136.7  14.042   97.5  0.0384   49.7  0.4421  -58.9
 1.100  0.4347 -143.0  12.904   93.9  0.0405   49.3  0.4138  -61.3
 1.200  0.4339 -149.0  11.915   90.5  0.0425   49.0  0.3873  -63.8
 1.300  0.4332 -154.4  11.058   87.4  0.0446   48.8  0.3649  -66.0
 1.400  0.4338 -159.3  10.301   84.5  0.0466   48.6  0.3442  -68.3
 1.500  0.4339 -163.8   9.636   81.8  0.0488   48.3  0.3253  -70.3
 1.600  0.4360 -167.9   9.040   79.2  0.0508   48.0  0.3085  -72.4
 1.700  0.4366 -172.0   8.514   76.8  0.0529   47.7  0.2925  -74.5
 1.800  0.4379 -175.6   8.028   74.5  0.0551   47.4  0.2784  -76.4
 1.900  0.4406 -179.3   7.593   72.3  0.0572   47.0  0.2640  -78.8
 2.000  0.4402  177.5   7.208   70.2  0.0594   46.6  0.2518  -80.6
 2.200  0.4448  170.9   6.528   66.0  0.0636   45.6  0.2275  -85.2
 2.400  0.4511  165.0   5.960   62.2  0.0679   44.5  0.2055  -90.2
 2.600  0.4610  159.5   5.475   58.4  0.0721   43.4  0.1856  -95.8
 2.800  0.4699  154.5   5.055   55.0  0.0763   42.2  0.1678 -101.8
 3.000  0.4798  149.8   4.695   51.6  0.0805   40.8  0.1523 -108.4
 3.500  0.5114  138.7   3.969   43.3  0.0907   37.1  0.1237 -130.2
 4.000  0.5418  129.2   3.422   35.5  0.1008   33.2  0.1146 -155.5
 4.500  0.5652  121.7   2.982   28.0  0.1100   28.9  0.1235 -177.8
 5.000  0.5799  115.7   2.633   21.4  0.1187   24.8  0.1360  165.9
 5.500  0.5959  109.6   2.362   14.9  0.1268   20.8  0.1528  152.5
 6.000  0.6169  103.7   2.148    8.5  0.1349   16.9  0.1731  140.9
 6.500  0.6398   98.4   1.970    1.9  0.1435   12.5  0.1931  131.3
 7.000  0.6570   92.9   1.822   -4.9  0.1525    8.0  0.2087  122.2
 7.500  0.6693   87.2   1.689  -11.8  0.1611    2.8  0.2306  114.4
 8.000  0.6837   80.7   1.550  -19.0  0.1666   -3.1  0.2594  106.6
 8.500  0.7036   73.8   1.408  -25.5  0.1678   -8.4  0.2963   97.9
 9.000  0.7400   67.6   1.290  -31.1  0.1684  -12.3  0.3475   90.6
 9.500  0.7941   63.1   1.201  -36.5  0.1702  -15.7  0.4077   86.0
10.000  0.8363   59.8   1.089  -42.0  0.1724  -19.3  0.4607   82.7
!
!  f       Fmin   Gammaopt  rn/50
! GHz       dB    MAG  ANG    -
 0.900      1.06  0.09 -152   0.13
 1.800      1.36  0.18 -147   0.12
 2.400      1.49  0.17 -148   0.14
 3.000      1.53  0.25 -138   0.14
 4.000      1.67  0.38 -119   0.20
 5.000      2.14  0.44 -103   0.32
 6.000      2.48  0.50  -88   0.47
!
! (c) 2009  Infineon Technologies AG, Munich