! Infineon Technologies  Discrete & RF Semiconductors
! BFP420
!
! VCE =  4.5 V,  IC =  1.2 mA
! Common Emitter S-Parameters:                            Nov 2009
# GHz  S  MA  R  50
!  f         S11            S21            S12            S22
! GHz     MAG   ANG      MAG   ANG      MAG   ANG      MAG   ANG
 0.010  0.9775   -1.3   4.545  179.2  0.0007   33.4  0.9958    0.0
 0.020  0.9696   -1.3   4.396  179.3  0.0019   69.3  0.9949   -0.6
 0.050  0.9668   -3.1   4.420  177.5  0.0043   80.0  0.9953   -1.5
 0.100  0.9697   -6.2   4.449  175.1  0.0089   82.7  0.9949   -3.2
 0.150  0.9670   -9.2   4.448  172.7  0.0134   82.1  0.9930   -4.8
 0.200  0.9668  -12.2   4.444  170.3  0.0178   81.2  0.9906   -6.3
 0.250  0.9641  -15.3   4.422  167.6  0.0222   79.6  0.9880   -7.9
 0.300  0.9607  -18.4   4.421  165.3  0.0266   78.1  0.9838   -9.5
 0.350  0.9569  -21.5   4.407  162.9  0.0309   76.5  0.9796  -11.1
 0.400  0.9538  -24.6   4.385  160.4  0.0352   74.8  0.9742  -12.6
 0.450  0.9497  -27.7   4.362  158.0  0.0395   73.1  0.9691  -14.1
 0.500  0.9452  -30.7   4.335  155.5  0.0437   71.4  0.9624  -15.7
 0.600  0.9352  -36.9   4.273  150.7  0.0518   67.9  0.9488  -18.7
 0.700  0.9232  -42.9   4.206  146.0  0.0596   64.4  0.9327  -21.6
 0.800  0.9106  -48.9   4.113  141.4  0.0670   61.1  0.9154  -24.5
 0.900  0.8970  -54.8   4.027  137.0  0.0739   57.7  0.8970  -27.2
 1.000  0.8838  -60.7   3.935  132.7  0.0805   54.5  0.8775  -29.9
 1.100  0.8703  -66.4   3.831  128.5  0.0866   51.4  0.8577  -32.4
 1.200  0.8561  -72.2   3.735  124.2  0.0924   48.3  0.8367  -35.0
 1.300  0.8428  -77.7   3.636  120.3  0.0977   45.4  0.8164  -37.3
 1.400  0.8296  -83.3   3.538  116.3  0.1025   42.4  0.7953  -39.7
 1.500  0.8166  -88.6   3.441  112.7  0.1071   39.6  0.7744  -41.9
 1.600  0.8044  -94.0   3.346  108.9  0.1109   36.9  0.7538  -43.9
 1.700  0.7906  -99.2   3.255  105.4  0.1148   34.2  0.7338  -46.0
 1.800  0.7793 -104.2   3.151  101.9  0.1179   31.7  0.7143  -47.8
 1.900  0.7683 -109.4   3.068   98.6  0.1210   29.2  0.6941  -49.8
 2.000  0.7568 -114.1   2.976   95.4  0.1236   26.9  0.6760  -51.5
 2.200  0.7357 -123.8   2.814   89.0  0.1280   22.3  0.6387  -55.0
 2.400  0.7175 -133.2   2.657   83.0  0.1314   17.9  0.6032  -58.3
 2.600  0.7045 -142.6   2.512   77.2  0.1335   13.7  0.5698  -61.5
 2.800  0.6915 -151.3   2.371   71.8  0.1346   10.0  0.5388  -64.4
 3.000  0.6852 -159.7   2.249   66.6  0.1351    6.5  0.5107  -67.2
 3.500  0.6788 -179.6   1.978   54.1  0.1335   -1.3  0.4474  -74.6
 4.000  0.6861  163.6   1.751   42.7  0.1300   -7.2  0.3978  -82.3
 4.500  0.6957  149.7   1.547   32.0  0.1249  -12.3  0.3603  -91.0
 5.000  0.7000  138.9   1.371   22.8  0.1186  -15.9  0.3316  -99.6
 5.500  0.7063  129.1   1.232   14.3  0.1118  -18.1  0.3071 -108.6
 6.000  0.7202  120.1   1.124    6.2  0.1063  -18.5  0.2885 -118.4
 6.500  0.7390  112.2   1.038   -1.7  0.1038  -18.0  0.2759 -128.9
 7.000  0.7534  104.8   0.962   -9.7  0.1039  -17.0  0.2654 -139.9
 7.500  0.7637   97.3   0.893  -17.4  0.1064  -16.7  0.2584 -152.7
 8.000  0.7711   89.0   0.820  -25.4  0.1091  -17.4  0.2545 -167.4
 8.500  0.7781   80.6   0.747  -32.6  0.1104  -18.4  0.2516  175.4
 9.000  0.8045   73.3   0.686  -39.1  0.1122  -18.6  0.2692  156.2
 9.500  0.8543   67.7   0.634  -45.2  0.1156  -18.4  0.3196  140.3
10.000  0.8931   63.7   0.571  -51.5  0.1217  -18.9  0.3884  129.9
!
!  f       Fmin   Gammaopt  rn/50
! GHz       dB    MAG  ANG    -
 0.900      0.53  0.62   33   0.31
 1.800      1.10  0.40   77   0.24
 2.400      1.23  0.41  100   0.20
 3.000      1.51  0.41  132   0.14
 4.000      1.80  0.44 -175   0.09
 5.000      2.23  0.45 -132   0.38
 6.000      3.18  0.57 -116   0.44
!
! (c) 2009  Infineon Technologies AG, Munich