! Infineon Technologies  Discrete & RF Semiconductors
! BFP420
!
! VCE =  4.5 V,  IC =  5.0 mA
! Common Emitter S-Parameters:                            Nov 2009
# GHz  S  MA  R  50
!  f         S11            S21            S12            S22
! GHz     MAG   ANG      MAG   ANG      MAG   ANG      MAG   ANG
 0.010  0.8558   -1.4  16.164  178.9  0.0018   19.5  0.9687    0.4
 0.020  0.8574   -2.2  15.704  178.1  0.0025   41.9  0.9718   -1.1
 0.050  0.8533   -5.4  15.686  175.4  0.0044   64.3  0.9719   -2.9
 0.100  0.8521  -11.3  15.679  171.4  0.0085   72.3  0.9686   -6.1
 0.150  0.8473  -16.8  15.548  167.3  0.0125   73.3  0.9619   -9.1
 0.200  0.8394  -22.4  15.377  163.3  0.0164   72.6  0.9522  -12.1
 0.250  0.8302  -27.8  15.122  159.1  0.0202   70.9  0.9409  -15.0
 0.300  0.8192  -33.3  14.904  155.3  0.0239   69.0  0.9268  -17.9
 0.350  0.8080  -38.7  14.630  151.6  0.0274   67.0  0.9112  -20.6
 0.400  0.7959  -43.8  14.315  147.8  0.0308   65.0  0.8938  -23.2
 0.450  0.7821  -49.0  13.989  144.2  0.0340   62.9  0.8757  -25.8
 0.500  0.7680  -54.0  13.633  140.7  0.0369   60.9  0.8561  -28.3
 0.600  0.7405  -63.6  12.929  134.0  0.0423   56.9  0.8164  -32.8
 0.700  0.7124  -72.7  12.197  128.0  0.0470   53.4  0.7757  -37.1
 0.800  0.6861  -81.2  11.465  122.4  0.0510   50.3  0.7363  -40.8
 0.900  0.6629  -89.3  10.782  117.2  0.0545   47.5  0.6983  -44.2
 1.000  0.6416  -97.0  10.141  112.4  0.0576   45.0  0.6618  -47.5
 1.100  0.6237 -104.2   9.535  108.0  0.0603   42.8  0.6285  -50.3
 1.200  0.6074 -111.0   8.978  103.8  0.0627   40.8  0.5962  -53.1
 1.300  0.5933 -117.4   8.464  100.1  0.0649   39.1  0.5670  -55.6
 1.400  0.5809 -123.5   7.994   96.4  0.0668   37.5  0.5394  -58.0
 1.500  0.5707 -129.3   7.569   93.1  0.0687   36.1  0.5136  -60.1
 1.600  0.5624 -134.7   7.169   89.8  0.0703   34.8  0.4900  -62.2
 1.700  0.5528 -140.0   6.813   86.8  0.0719   33.6  0.4676  -64.2
 1.800  0.5475 -144.7   6.466   84.0  0.0733   32.6  0.4471  -66.0
 1.900  0.5423 -149.7   6.159   81.2  0.0748   31.5  0.4266  -68.1
 2.000  0.5361 -154.0   5.876   78.6  0.0762   30.7  0.4092  -69.6
 2.200  0.5289 -162.9   5.376   73.5  0.0789   29.0  0.3744  -73.2
 2.400  0.5246 -171.1   4.940   68.8  0.0812   27.4  0.3425  -76.8
 2.600  0.5262 -179.0   4.566   64.3  0.0834   26.0  0.3134  -80.5
 2.800  0.5282  174.2   4.232   60.2  0.0856   24.9  0.2873  -84.0
 3.000  0.5333  167.8   3.947   56.2  0.0879   23.7  0.2639  -87.6
 3.500  0.5540  153.0   3.359   46.6  0.0933   21.1  0.2120  -98.8
 4.000  0.5783  140.6   2.909   37.6  0.0991   18.6  0.1742 -112.6
 4.500  0.5989  130.8   2.538   29.2  0.1046   15.9  0.1514 -129.0
 5.000  0.6112  123.3   2.241   21.8  0.1100   13.4  0.1385 -144.9
 5.500  0.6246  116.0   2.009   14.8  0.1152   10.9  0.1337 -161.7
 6.000  0.6443  109.0   1.828    7.8  0.1209    8.6  0.1361 -179.0
 6.500  0.6659  102.8   1.679    0.7  0.1278    5.7  0.1436  166.0
 7.000  0.6820   96.8   1.554   -6.4  0.1356    2.6  0.1515  153.0
 7.500  0.6941   90.5   1.441  -13.6  0.1435   -1.4  0.1681  140.7
 8.000  0.7069   83.4   1.323  -21.1  0.1491   -6.3  0.1925  128.4
 8.500  0.7228   76.0   1.203  -27.9  0.1508  -10.8  0.2247  115.2
 9.000  0.7565   69.5   1.105  -33.9  0.1519  -14.0  0.2739  104.4
 9.500  0.8094   64.6   1.027  -39.7  0.1540  -16.8  0.3357   98.0
10.000  0.8502   61.1   0.931  -45.6  0.1572  -19.7  0.3945   94.3
!
!  f       Fmin   Gammaopt  rn/50
! GHz       dB    MAG  ANG    -
 0.900      0.66  0.21   31   0.15
 1.800      1.05  0.09   93   0.13
 2.400      1.14  0.14  119   0.13
 3.000      1.24  0.17  165   0.11
 4.000      1.41  0.31 -145   0.12
 5.000      1.85  0.38 -119   0.21
 6.000      2.30  0.45 -101   0.36
!
! (c) 2009  Infineon Technologies AG, Munich