! Infineon Technologies  Discrete & RF Semiconductors
! BFP420
!
! VCE =  4.5 V,  IC =  30 mA
! Common Emitter S-Parameters:                            Nov 2009
# GHz  S  MA  R  50
!  f         S11            S21            S12            S22
! GHz     MAG   ANG      MAG   ANG      MAG   ANG      MAG   ANG
 0.010  0.3724   -1.8  48.168  178.4  0.0018   41.5  0.8629    3.2
 0.020  0.3673   -5.4  46.803  175.6  0.0021   40.4  0.8814   -1.4
 0.050  0.3704  -15.0  46.070  170.5  0.0035   55.1  0.8863   -5.9
 0.100  0.3712  -32.0  44.819  162.0  0.0062   65.4  0.8699  -13.0
 0.150  0.3728  -46.9  42.773  154.0  0.0087   65.4  0.8380  -19.4
 0.200  0.3734  -60.8  40.420  146.8  0.0111   64.9  0.7980  -25.0
 0.250  0.3699  -73.2  37.768  140.0  0.0132   63.3  0.7551  -29.9
 0.300  0.3709  -84.4  35.321  134.2  0.0150   61.9  0.7110  -34.3
 0.350  0.3711  -94.1  32.904  129.0  0.0167   60.6  0.6692  -38.0
 0.400  0.3723 -102.4  30.635  124.2  0.0182   59.7  0.6301  -41.2
 0.450  0.3729 -110.2  28.550  120.0  0.0196   59.0  0.5940  -43.9
 0.500  0.3740 -117.1  26.638  116.3  0.0209   58.5  0.5609  -46.4
 0.600  0.3766 -128.6  23.351  109.7  0.0234   57.9  0.5044  -50.5
 0.700  0.3807 -138.1  20.660  104.3  0.0257   57.8  0.4578  -53.8
 0.800  0.3833 -145.7  18.431   99.6  0.0280   57.7  0.4195  -56.7
 0.900  0.3878 -152.4  16.609   95.5  0.0303   57.8  0.3874  -59.2
 1.000  0.3926 -158.2  15.067   91.9  0.0326   57.7  0.3592  -61.7
 1.100  0.3957 -163.2  13.760   88.7  0.0349   57.8  0.3357  -63.9
 1.200  0.4006 -167.8  12.644   85.6  0.0373   57.7  0.3139  -66.3
 1.300  0.4039 -171.9  11.681   82.9  0.0397   57.5  0.2954  -68.4
 1.400  0.4085 -175.6  10.845   80.3  0.0421   57.3  0.2786  -70.7
 1.500  0.4114 -179.1  10.119   78.0  0.0445   57.0  0.2630  -72.8
 1.600  0.4158  177.8   9.470   75.6  0.0469   56.6  0.2494  -75.0
 1.700  0.4189  174.4   8.902   73.4  0.0493   56.2  0.2362  -77.2
 1.800  0.4215  171.8   8.378   71.3  0.0518   55.7  0.2246  -79.2
 1.900  0.4261  168.9   7.914   69.3  0.0542   55.1  0.2128  -82.0
 2.000  0.4272  166.3   7.504   67.4  0.0567   54.5  0.2026  -83.8
 2.200  0.4340  161.0   6.788   63.6  0.0615   53.2  0.1826  -89.0
 2.400  0.4419  156.0   6.187   60.1  0.0664   51.7  0.1644  -95.1
 2.600  0.4535  151.4   5.676   56.5  0.0711   50.1  0.1481 -101.9
 2.800  0.4630  147.3   5.237   53.3  0.0758   48.5  0.1342 -109.5
 3.000  0.4743  143.4   4.864   50.1  0.0805   46.8  0.1224 -117.8
 3.500  0.5071  133.8   4.108   42.3  0.0917   42.3  0.1057 -144.8
 4.000  0.5384  125.2   3.538   34.7  0.1026   37.6  0.1100 -171.6
 4.500  0.5620  118.5   3.084   27.5  0.1125   32.8  0.1286  168.6
 5.000  0.5769  113.1   2.724   21.1  0.1218   28.2  0.1466  154.8
 5.500  0.5937  107.4   2.446   14.9  0.1304   23.7  0.1671  143.6
 6.000  0.6147  101.9   2.224    8.6  0.1390   19.3  0.1900  133.8
 6.500  0.6376   96.7   2.039    2.0  0.1479   14.6  0.2118  125.3
 7.000  0.6547   91.6   1.886   -4.6  0.1572    9.8  0.2283  117.0
 7.500  0.6666   86.1   1.748  -11.4  0.1659    4.2  0.2504  109.9
 8.000  0.6818   79.7   1.604  -18.4  0.1714   -1.8  0.2795  102.8
 8.500  0.7024   73.0   1.456  -24.9  0.1724   -7.3  0.3168   94.8
 9.000  0.7393   67.0   1.334  -30.4  0.1728  -11.3  0.3680   88.1
 9.500  0.7937   62.5   1.242  -35.7  0.1746  -14.9  0.4281   83.8
10.000  0.8355   59.3   1.127  -41.1  0.1766  -18.7  0.4801   80.5
!
!  f       Fmin   Gammaopt  rn/50
! GHz       dB    MAG  ANG    -
 0.900      1.51  0.26 -155   0.13
 1.800      1.78  0.33 -142   0.14
 2.400      1.96  0.30 -136   0.18
 3.000      1.98  0.38 -127   0.20
 4.000      2.11  0.47 -111   0.31
 5.000      2.57  0.53  -94   0.51
 6.000      3.00  0.57  -82   0.74
!
! (c) 2009  Infineon Technologies AG, Munich